opti fix molmec phon pot prop comp conv  
cell
  17.724000  19.461000  85.817500  90.000000  90.000000  90.000000
fractional  1   
Ti    core 0.3200000 0.7333332 0.4541174 2.43599999 1.00000 0.00000             
Ti    core 0.1475502 0.3993994 0.4569228 2.43599999 1.00000 0.00000             
Ti    core 0.9794034 0.3992481 0.4572020 2.43599999 1.00000 0.00000             
Ti    core 0.8117570 0.3959751 0.4577236 2.43599999 1.00000 0.00000             
Ti    core 0.6517649 0.3956605 0.4575400 2.43599999 1.00000 0.00000             
Ti    core 0.4843008 0.3991957 0.4571907 2.43599999 1.00000 0.00000             
Ti    core 0.3159718 0.3993842 0.4568884 2.43599999 1.00000 0.00000             
Ti    core 0.1483964 0.0655601 0.4561179 2.43599999 1.00000 0.00000             
Ti    core 0.9821239 0.0654780 0.4568433 2.43599999 1.00000 0.00000             
Ti    core 0.8145689 0.0693432 0.4571213 2.43599999 1.00000 0.00000             
Ti    core 0.6492918 0.0692089 0.4570992 2.43599999 1.00000 0.00000             
Ti    core 0.4815069 0.0656805 0.4568341 2.43599999 1.00000 0.00000             
Ti    core 0.3150136 0.0655594 0.4567014 2.43599999 1.00000 0.00000             
Ti    core 0.1434932 0.7334918 0.4533561 2.43599999 1.00000 0.00000             
Ti    core 0.9807858 0.7336539 0.4570040 2.43599999 1.00000 0.00000             
Ti    core 0.8150480 0.7327905 0.4569418 2.43599999 1.00000 0.00000             
Ti    core 0.6490207 0.7329335 0.4568840 2.43599999 1.00000 0.00000             
Ti    core 0.4831478 0.7330462 0.4569669 2.43599999 1.00000 0.00000             
Ti    core 0.0658072 0.2324056 0.4537395 2.43599999 1.00000 0.00000             
Ti    core 0.9003725 0.2293824 0.4532746 2.43599999 1.00000 0.00000             
Ti    core 0.7318142 0.2463761 0.4547064 2.43599999 1.00000 0.00000             
Ti    core 0.8992651 0.8994526 0.4539374 2.43599999 1.00000 0.00000             
Ti    core 0.5650417 0.8993781 0.4538904 2.43599999 1.00000 0.00000             
Ti    core 0.3976982 0.8998641 0.4538396 2.43599999 1.00000 0.00000             
Ti    core 0.8981566 0.5662039 0.4537138 2.43599999 1.00000 0.00000             
Ti    core 0.5655572 0.5659339 0.4536497 2.43599999 1.00000 0.00000             
Ti    core 0.3989704 0.5669135 0.4539152 2.43599999 1.00000 0.00000             
Ti    core 0.2319309 0.2317841 0.4537711 2.43599999 1.00000 0.00000             
Ti    core 0.5631508 0.2294066 0.4532108 2.43599999 1.00000 0.00000             
Ti    core 0.3978602 0.2329293 0.4537574 2.43599999 1.00000 0.00000             
Ti    core 0.2310276 0.9006587 0.4557461 2.43599999 1.00000 0.00000             
Ti    core 0.0660086 0.9001745 0.4561659 2.43599999 1.00000 0.00000             
Ti    core 0.7321868 0.9013583 0.4540832 2.43599999 1.00000 0.00000             
Ti    core 0.2319229 0.5639410 0.4534440 2.43599999 1.00000 0.00000             
Ti    core 0.0647586 0.5676195 0.4539024 2.43599999 1.00000 0.00000             
Ti    core 0.7318144 0.5658187 0.4557092 2.43599999 1.00000 0.00000             
Ti    core 0.3153542 0.5663690 0.4173590 2.43599999 1.00000 0.00000             
Ti    core 0.1487375 0.2331159 0.4174701 2.43599999 1.00000 0.00000             
Ti    core 0.9825118 0.2328175 0.4171952 2.43599999 1.00000 0.00000             
Ti    core 0.8152826 0.2341090 0.4181974 2.43599999 1.00000 0.00000             
Ti    core 0.6483976 0.2341462 0.4181933 2.43599999 1.00000 0.00000             
Ti    core 0.4811281 0.2327897 0.4171575 2.43599999 1.00000 0.00000             
Ti    core 0.3149985 0.2331754 0.4174262 2.43599999 1.00000 0.00000             
Ti    core 0.1484146 0.8999546 0.4194947 2.43599999 1.00000 0.00000             
Ti    core 0.9819907 0.9001056 0.4182967 2.43599999 1.00000 0.00000             
Ti    core 0.8151206 0.9004229 0.4177034 2.43599999 1.00000 0.00000             
Ti    core 0.6486137 0.9004182 0.4177150 2.43599999 1.00000 0.00000             
Ti    core 0.4821388 0.9001272 0.4174808 2.43599999 1.00000 0.00000             
Ti    core 0.3149816 0.8998829 0.4181484 2.43599999 1.00000 0.00000             
Ti    core 0.1484007 0.5664645 0.4174054 2.43599999 1.00000 0.00000             
Ti    core 0.9818922 0.5667909 0.4173779 2.43599999 1.00000 0.00000             
Ti    core 0.8148245 0.5667599 0.4184295 2.43599999 1.00000 0.00000             
Ti    core 0.6488757 0.5667384 0.4184042 2.43599999 1.00000 0.00000             
Ti    core 0.4817787 0.5667501 0.4173535 2.43599999 1.00000 0.00000             
Ti    core 0.4001659 0.7332737 0.4178266 2.43599999 1.00000 0.00000             
Ti    core 0.2318502 0.3998665 0.4186550 2.43599999 1.00000 0.00000             
Ti    core 0.0649948 0.3995971 0.4187850 2.43599999 1.00000 0.00000             
Ti    core 0.8985589 0.4005804 0.4190921 2.43599999 1.00000 0.00000             
Ti    core 0.7318873 0.4003689 0.4192993 2.43599999 1.00000 0.00000             
Ti    core 0.5651229 0.4005577 0.4190512 2.43599999 1.00000 0.00000             
Ti    core 0.3987313 0.3995745 0.4187610 2.43599999 1.00000 0.00000             
Ti    core 0.2319819 0.0665147 0.4185040 2.43599999 1.00000 0.00000             
Ti    core 0.0652787 0.0661981 0.4185348 2.43599999 1.00000 0.00000             
Ti    core 0.8984965 0.0676162 0.4187357 2.43599999 1.00000 0.00000             
Ti    core 0.7318372 0.0673257 0.4188472 2.43599999 1.00000 0.00000             
Ti    core 0.5651700 0.0676580 0.4186923 2.43599999 1.00000 0.00000             
Ti    core 0.3983072 0.0662654 0.4185566 2.43599999 1.00000 0.00000             
Ti    core 0.2320520 0.7332864 0.4179837 2.43599999 1.00000 0.00000             
Ti    core 0.0633419 0.7334504 0.4177423 2.43599999 1.00000 0.00000             
Ti    core 0.8979609 0.7334417 0.4186924 2.43599999 1.00000 0.00000             
Ti    core 0.7318619 0.7333422 0.4187603 2.43599999 1.00000 0.00000             
Ti    core 0.5657247 0.7334347 0.4186379 2.43599999 1.00000 0.00000             
Ti    core 0.3151647 0.7334515 0.3809053 2.43599999 1.00000 0.00000             
Ti    core 0.1484987 0.4000502 0.3814166 2.43599999 1.00000 0.00000             
Ti    core 0.9817514 0.4001629 0.3816509 2.43599999 1.00000 0.00000             
Ti    core 0.8150769 0.4001910 0.3818054 2.43599999 1.00000 0.00000             
Ti    core 0.6486342 0.4001911 0.3817921 2.43599999 1.00000 0.00000             
Ti    core 0.4819499 0.4001607 0.3816151 2.43599999 1.00000 0.00000             
Ti    core 0.3151983 0.4000506 0.3814078 2.43599999 1.00000 0.00000             
Ti    core 0.1485381 0.0665832 0.3813635 2.43599999 1.00000 0.00000             
Ti    core 0.9818203 0.0667792 0.3815472 2.43599999 1.00000 0.00000             
Ti    core 0.8151044 0.0668439 0.3815532 2.43599999 1.00000 0.00000             
Ti    core 0.6485893 0.0668770 0.3814996 2.43599999 1.00000 0.00000             
Ti    core 0.4818973 0.0667988 0.3814704 2.43599999 1.00000 0.00000             
Ti    core 0.3151502 0.0665821 0.3813721 2.43599999 1.00000 0.00000             
Ti    core 0.1485335 0.7334568 0.3808727 2.43599999 1.00000 0.00000             
Ti    core 0.9814996 0.7334702 0.3812575 2.43599999 1.00000 0.00000             
Ti    core 0.8150320 0.7335084 0.3814839 2.43599999 1.00000 0.00000             
Ti    core 0.6486515 0.7334690 0.3814310 2.43599999 1.00000 0.00000             
Ti    core 0.4821860 0.7334536 0.3811964 2.43599999 1.00000 0.00000             
Ti    core 0.3986656 0.5668275 0.3812539 2.43599999 1.00000 0.00000             
Ti    core 0.2318334 0.2332884 0.3812739 2.43599999 1.00000 0.00000             
Ti    core 0.0652331 0.2334693 0.3812589 2.43599999 1.00000 0.00000             
Ti    core 0.8981639 0.2336038 0.3814772 2.43599999 1.00000 0.00000             
Ti    core 0.7318525 0.2336257 0.3817562 2.43599999 1.00000 0.00000             
Ti    core 0.5655442 0.2336205 0.3814520 2.43599999 1.00000 0.00000             
Ti    core 0.3984572 0.2335009 0.3812316 2.43599999 1.00000 0.00000             
Ti    core 0.2313850 0.8999750 0.3820188 2.43599999 1.00000 0.00000             
Ti    core 0.0655497 0.9000932 0.3820972 2.43599999 1.00000 0.00000             
Ti    core 0.8988281 0.9001550 0.3816829 2.43599999 1.00000 0.00000             
Ti    core 0.7319444 0.9002370 0.3814936 2.43599999 1.00000 0.00000             
Ti    core 0.5652686 0.9001507 0.3814194 2.43599999 1.00000 0.00000             
Ti    core 0.3981924 0.9000981 0.3815356 2.43599999 1.00000 0.00000             
Ti    core 0.2318350 0.5667232 0.3812205 2.43599999 1.00000 0.00000             
Ti    core 0.0650342 0.5668531 0.3812766 2.43599999 1.00000 0.00000             
Ti    core 0.8980347 0.5667204 0.3815985 2.43599999 1.00000 0.00000             
Ti    core 0.7318612 0.5667782 0.3818654 2.43599999 1.00000 0.00000             
Ti    core 0.5656676 0.5667081 0.3815711 2.43599999 1.00000 0.00000             
Ti    core 0.3152279 0.5667893 0.3450955 2.43599999 1.00000 0.00000             
Ti    core 0.1485046 0.2334634 0.3451687 2.43599999 1.00000 0.00000             
Ti    core 0.9817503 0.2334764 0.3452595 2.43599999 1.00000 0.00000             
Ti    core 0.8150866 0.2334660 0.3454581 2.43599999 1.00000 0.00000             
Ti    core 0.6486118 0.2334613 0.3454429 2.43599999 1.00000 0.00000             
Ti    core 0.4819441 0.2334695 0.3452311 2.43599999 1.00000 0.00000             
Ti    core 0.3151923 0.2334559 0.3451517 2.43599999 1.00000 0.00000             
Ti    core 0.1484871 0.9001102 0.3457012 2.43599999 1.00000 0.00000             
Ti    core 0.9820289 0.9001252 0.3455985 2.43599999 1.00000 0.00000             
Ti    core 0.8153125 0.9001522 0.3454112 2.43599999 1.00000 0.00000             
Ti    core 0.6485482 0.9001524 0.3453073 2.43599999 1.00000 0.00000             
Ti    core 0.4817580 0.9001255 0.3452993 2.43599999 1.00000 0.00000             
Ti    core 0.3149847 0.9001124 0.3454862 2.43599999 1.00000 0.00000             
Ti    core 0.1484732 0.5667818 0.3451116 2.43599999 1.00000 0.00000             
Ti    core 0.9816914 0.5667922 0.3452801 2.43599999 1.00000 0.00000             
Ti    core 0.8150712 0.5668012 0.3455191 2.43599999 1.00000 0.00000             
Ti    core 0.6486262 0.5668063 0.3455029 2.43599999 1.00000 0.00000             
Ti    core 0.4820010 0.5667988 0.3452532 2.43599999 1.00000 0.00000             
Ti    core 0.3986704 0.7334733 0.3439091 2.43599999 1.00000 0.00000             
Ti    core 0.2318464 0.4001398 0.3441271 2.43599999 1.00000 0.00000             
Ti    core 0.0650610 0.4001379 0.3442102 2.43599999 1.00000 0.00000             
Ti    core 0.8984046 0.4001472 0.3443660 2.43599999 1.00000 0.00000             
Ti    core 0.7318530 0.4001403 0.3444382 2.43599999 1.00000 0.00000             
Ti    core 0.5652996 0.4001473 0.3443478 2.43599999 1.00000 0.00000             
Ti    core 0.3986296 0.4001381 0.3441923 2.43599999 1.00000 0.00000             
Ti    core 0.2318293 0.0667732 0.3441432 2.43599999 1.00000 0.00000             
Ti    core 0.0651244 0.0667878 0.3442033 2.43599999 1.00000 0.00000             
Ti    core 0.8985172 0.0667831 0.3442558 2.43599999 1.00000 0.00000             
Ti    core 0.7318816 0.0667852 0.3442431 2.43599999 1.00000 0.00000             
Ti    core 0.5652101 0.0667916 0.3441954 2.43599999 1.00000 0.00000             
Ti    core 0.3985361 0.0667678 0.3441456 2.43599999 1.00000 0.00000             
Ti    core 0.2318357 0.7334811 0.3438396 2.43599999 1.00000 0.00000             
Ti    core 0.0649842 0.7334523 0.3439551 2.43599999 1.00000 0.00000             
Ti    core 0.8983775 0.7334928 0.3441214 2.43599999 1.00000 0.00000             
Ti    core 0.7318784 0.7334939 0.3441799 2.43599999 1.00000 0.00000             
Ti    core 0.5653405 0.7334840 0.3440676 2.43599999 1.00000 0.00000             
Ti    core 0.3986516 0.5668249 0.3088122 2.43599999 1.00000 0.00000             
Ti    core 0.3151914 0.7335414 0.3057189 2.43599999 1.00000 0.00000             
Ti    core 0.2318350 0.2334434 0.3088051 2.43599999 1.00000 0.00000             
Ti    core 0.1484425 0.4001416 0.3059504 2.43599999 1.00000 0.00000             
Ti    core 0.0650888 0.2334373 0.3088621 2.43599999 1.00000 0.00000             
Ti    core 0.9817198 0.4001420 0.3060708 2.43599999 1.00000 0.00000             
Ti    core 0.8983941 0.2334519 0.3089986 2.43599999 1.00000 0.00000             
Ti    core 0.8151232 0.4001451 0.3061788 2.43599999 1.00000 0.00000             
Ti    core 0.7318622 0.2334563 0.3090759 2.43599999 1.00000 0.00000             
Ti    core 0.6485909 0.4001449 0.3061718 2.43599999 1.00000 0.00000             
Ti    core 0.5653147 0.2334467 0.3089721 2.43599999 1.00000 0.00000             
Ti    core 0.4819787 0.4001422 0.3060555 2.43599999 1.00000 0.00000             
Ti    core 0.3985951 0.2334509 0.3088372 2.43599999 1.00000 0.00000             
Ti    core 0.3152339 0.4001417 0.3059432 2.43599999 1.00000 0.00000             
Ti    core 0.2317192 0.9001361 0.3091505 2.43599999 1.00000 0.00000             
Ti    core 0.1484660 0.0667197 0.3059880 2.43599999 1.00000 0.00000             
Ti    core 0.0652240 0.9001342 0.3092133 2.43599999 1.00000 0.00000             
Ti    core 0.9818203 0.0667327 0.3060416 2.43599999 1.00000 0.00000             
Ti    core 0.8986482 0.9001369 0.3091111 2.43599999 1.00000 0.00000             
Ti    core 0.8152029 0.0667487 0.3060485 2.43599999 1.00000 0.00000             
Ti    core 0.7319451 0.9001437 0.3089905 2.43599999 1.00000 0.00000             
Ti    core 0.6485681 0.0667594 0.3060145 2.43599999 1.00000 0.00000             
Ti    core 0.5651809 0.9001375 0.3089351 2.43599999 1.00000 0.00000             
Ti    core 0.4818799 0.0667462 0.3059763 2.43599999 1.00000 0.00000             
Ti    core 0.3983888 0.9001369 0.3089935 2.43599999 1.00000 0.00000             
Ti    core 0.3151592 0.0667244 0.3059595 2.43599999 1.00000 0.00000             
Ti    core 0.2318352 0.5668254 0.3087436 2.43599999 1.00000 0.00000             
Ti    core 0.1484365 0.7335461 0.3057422 2.43599999 1.00000 0.00000             
Ti    core 0.0650321 0.5668371 0.3088352 2.43599999 1.00000 0.00000             
Ti    core 0.9817575 0.7335335 0.3058748 2.43599999 1.00000 0.00000             
Ti    core 0.8983513 0.5668210 0.3090267 2.43599999 1.00000 0.00000             
Ti    core 0.8151689 0.7335188 0.3059674 2.43599999 1.00000 0.00000             
Ti    core 0.7318620 0.5668172 0.3091234 2.43599999 1.00000 0.00000             
Ti    core 0.6485974 0.7335078 0.3059364 2.43599999 1.00000 0.00000             
Ti    core 0.5653561 0.5668255 0.3090010 2.43599999 1.00000 0.00000             
Ti    core 0.4819403 0.7335196 0.3058176 2.43599999 1.00000 0.00000             
O2    core 0.3946551 0.7302365 0.4678838 -1.2179999 1.00000 0.00000             
O2    core 0.2318646 0.4033147 0.4685106 
O2    core 0.0642863 0.3996989 0.4687352 -1.2179999 1.00000 0.00000             
O2    core 0.8958313 0.3990396 0.4693417 -1.2179999 1.00000 0.00000             
O2    core 0.7312428 0.3282455 0.4664189 
#H22    core 0.7312428 0.3282455 0.4764189
O3    core 0.5680029 0.3989597 0.4693050
H22    core 0.5680029 0.3989597 0.4793050
O2    core 0.3993922 0.3997035 0.4686998 -1.2179999 1.00000 0.00000             
O2    core 0.2311277 0.0669247 0.4682356 -1.2179999 1.00000 0.00000             
O2    core 0.0663753 0.0665415 0.4683360 -1.2179999 1.00000 0.00000             
O2    core 0.8987037 0.0708780 0.4686349 -1.2179999 1.00000 0.00000             
O2    core 0.7317887 0.0620929 0.4689472 -1.2179999 1.00000 0.00000             
O2    core 0.5648578 0.0686745 0.4685880 -1.2179999 1.00000 0.00000             
O2    core 0.3981247 0.0648657 0.4686086 -1.2179999 1.00000 0.00000             
O2    core 0.2311200 0.7348630 0.4682962 
#H22   core 0.2267429 0.7508490 0.4789359 
O2    core 0.0705204 0.7288601 0.4674748 -1.2179999 1.00000 0.00000             
O2    core 0.8985954 0.7333190 0.4688942 -1.2179999 1.00000 0.00000             
O2    core 0.7318223 0.7359924 0.4686657 -1.2179999 1.00000 0.00000             
O3    core 0.5651727 0.7353817 0.4688174 
H22    core 0.5651727 0.7353817 0.4788174
O2    core 0.1489865 0.1723992 0.4555254 -1.2179999 1.00000 0.00000             
O2    core 0.9838042 0.1711728 0.4556932 -1.2179999 1.00000 0.00000             
O2    core 0.8129047 0.1758672 0.4566055 -1.2179999 1.00000 0.00000             
O2    core 0.6498630 0.1755193 0.4566467 -1.2179999 1.00000 0.00000             
O2    core 0.4795795 0.1707618 0.4557219 -1.2179999 1.00000 0.00000             
O2    core 0.3155122 0.1723542 0.4558748 -1.2179999 1.00000 0.00000             
O2    core 0.1510206 0.8312026 0.4534484 -1.2179999 1.00000 0.00000             
O2    core 0.9805735 0.8368469 0.4558310 -1.2179999 1.00000 0.00000             
O2    core 0.8151960 0.8398351 0.4560025 -1.2179999 1.00000 0.00000             
O2    core 0.6482877 0.8399558 0.4558904 -1.2179999 1.00000 0.00000             
O2    core 0.4803816 0.8384174 0.4561567 -1.2179999 1.00000 0.00000             
O2    core 0.3168383 0.8337856 0.4553198 -1.2179999 1.00000 0.00000             
O2    core 0.9831709 0.5067890 0.4563423 -1.2179999 1.00000 0.00000             
O2    core 0.4807015 0.5067493 0.4563751 -1.2179999 1.00000 0.00000             
O2    core 0.3159681 0.5071433 0.4559034 -1.2179999 1.00000 0.00000             
O2    core 0.1477942 0.5073772 0.4559552 -1.2179999 1.00000 0.00000             
O2    core 0.8200776 0.5041104 0.4546075 -1.2179999 1.00000 0.00000             
O2    core 0.6434140 0.5039682 0.4545201 -1.2179999 1.00000 0.00000             
O2    core 0.3125048 0.6295079 0.4558759 -1.2179999 1.00000 0.00000             
O2    core 0.1496122 0.2937205 0.4560045 -1.2179999 1.00000 0.00000             
O2    core 0.9839031 0.2926016 0.4560717 -1.2179999 1.00000 0.00000             
O2    core 0.8296756 0.2960546 0.4520768 -1.2179999 1.00000 0.00000             
O2    core 0.6337980 0.2958533 0.4518929 -1.2179999 1.00000 0.00000             
O2    core 0.4799302 0.2924915 0.4561034 -1.2179999 1.00000 0.00000             
O2    core 0.3142167 0.2938374 0.4559629 -1.2179999 1.00000 0.00000             
O2    core 0.9791032 0.9620268 0.4556609 -1.2179999 1.00000 0.00000             
O2    core 0.4820442 0.9600325 0.4559074 -1.2179999 1.00000 0.00000             
O2    core 0.3176707 0.9607003 0.4554478 -1.2179999 1.00000 0.00000             
O2    core 0.1522226 0.6295669 0.4554830 -1.2179999 1.00000 0.00000             
O2    core 0.9823897 0.6279148 0.4560040 -1.2179999 1.00000 0.00000             
O2    core 0.8176588 0.6292523 0.4552214 -1.2179999 1.00000 0.00000             
O2    core 0.6451497 0.6295786 0.4551976 -1.2179999 1.00000 0.00000             
O2    core 0.4810376 0.6281524 0.4560001 -1.2179999 1.00000 0.00000             
O2    core 0.1491507 0.9638826 0.4534977 -1.2179999 1.00000 0.00000             
O2    core 0.8161640 0.9612257 0.4559378 -1.2179999 1.00000 0.00000             
O2    core 0.6472292 0.9609780 0.4558466 -1.2179999 1.00000 0.00000             
O2    core 0.4017096 0.7320068 0.4400968 -1.2179999 1.00000 0.00000             
O2    core 0.2319454 0.4011476 0.4409196 -1.2179999 1.00000 0.00000             
O2    core 0.0663145 0.3998510 0.4409728 -1.2179999 1.00000 0.00000             
O2    core 0.9030361 0.4027865 0.4410022 -1.2179999 1.00000 0.00000             
O2    core 0.7318399 0.3992698 0.4417483 -1.2179999 1.00000 0.00000             
O2    core 0.5605622 0.4027148 0.4409838 -1.2179999 1.00000 0.00000             
O2    core 0.3976242 0.3998216 0.4409722 -1.2179999 1.00000 0.00000             
O2    core 0.2336547 0.0693257 0.4405325 -1.2179999 1.00000 0.00000             
O2    core 0.0642861 0.0688607 0.4405452 -1.2179999 1.00000 0.00000             
O2    core 0.8974753 0.0694296 0.4409249 -1.2179999 1.00000 0.00000             
O2    core 0.7314907 0.0671981 0.4410870 -1.2179999 1.00000 0.00000             
O2    core 0.5651087 0.0686756 0.4409449 -1.2179999 1.00000 0.00000             
O2    core 0.3989186 0.0661239 0.4407611 -1.2179999 1.00000 0.00000             
O2    core 0.2334092 0.7296816 0.4416176 -1.2179999 1.00000 0.00000             
O2    core 0.0609052 0.7296657 0.4397937 -1.2179999 1.00000 0.00000             
O2    core 0.8984899 0.7339687 0.4408965 -1.2179999 1.00000 0.00000             
O2    core 0.7315578 0.7348053 0.4408764 -1.2179999 1.00000 0.00000             
O2    core 0.5641206 0.7347634 0.4409045 -1.2179999 1.00000 0.00000             
O2    core 0.3975448 0.5678833 0.4321271 -1.2179999 1.00000 0.00000             
O2    core 0.2321626 0.2332968 0.4319944 -1.2179999 1.00000 0.00000             
O2    core 0.0660410 0.2334622 0.4319122 -1.2179999 1.00000 0.00000             
O2    core 0.9023130 0.2278595 0.4315531 -1.2179999 1.00000 0.00000             
O2    core 0.7317443 0.2346776 0.4324195 -1.2179999 1.00000 0.00000             
O2    core 0.5610842 0.2275867 0.4315295 -1.2179999 1.00000 0.00000             
O2    core 0.3977233 0.2332427 0.4319437 -1.2179999 1.00000 0.00000             
O2    core 0.2351910 0.8986689 0.4328792 -1.2179999 1.00000 0.00000             
O2    core 0.0626764 0.8986789 0.4330596 -1.2179999 1.00000 0.00000             
O2    core 0.8971589 0.8994518 0.4321827 -1.2179999 1.00000 0.00000             
O2    core 0.7315324 0.9006502 0.4322084 -1.2179999 1.00000 0.00000             
O2    core 0.5646181 0.8993830 0.4321175 -1.2179999 1.00000 0.00000             
O2    core 0.4000991 0.8987948 0.4321168 -1.2179999 1.00000 0.00000             
O2    core 0.2321778 0.5663706 0.4318843 -1.2179999 1.00000 0.00000             
O2    core 0.0662329 0.5677769 0.4320976 -1.2179999 1.00000 0.00000             
O2    core 0.9015262 0.5679380 0.4319713 -1.2179999 1.00000 0.00000             
O2    core 0.7316761 0.5676264 0.4328115 -1.2179999 1.00000 0.00000             
O2    core 0.5619812 0.5679444 0.4319514 -1.2179999 1.00000 0.00000             
O2    core 0.3150220 0.6683306 0.4182196 -1.2179999 1.00000 0.00000             
O2    core 0.3151304 0.4657312 0.4181251 -1.2179999 1.00000 0.00000             
O2    core 0.1489871 0.3345484 0.4181503 -1.2179999 1.00000 0.00000             
O2    core 0.1489231 0.1321969 0.4178465 -1.2179999 1.00000 0.00000             
O2    core 0.9821820 0.3343192 0.4180788 -1.2179999 1.00000 0.00000             
O2    core 0.9830246 0.1317022 0.4174804 -1.2179999 1.00000 0.00000             
O2    core 0.8155042 0.3352510 0.4182875 -1.2179999 1.00000 0.00000             
O2    core 0.8147357 0.1323344 0.4180949 -1.2179999 1.00000 0.00000             
O2    core 0.6480333 0.3352604 0.4182891 -1.2179999 1.00000 0.00000             
O2    core 0.6486254 0.1322411 0.4181440 -1.2179999 1.00000 0.00000             
O2    core 0.4815079 0.3342290 0.4180874 -1.2179999 1.00000 0.00000             
O2    core 0.4803932 0.1314569 0.4176411 -1.2179999 1.00000 0.00000             
O2    core 0.3149330 0.3345474 0.4181479 -1.2179999 1.00000 0.00000             
O2    core 0.3154060 0.1322280 0.4178122 -1.2179999 1.00000 0.00000             
O2    core 0.1489440 0.0011424 0.4183839 -1.2179999 1.00000 0.00000             
O2    core 0.1489781 0.7967611 0.4188267 -1.2179999 1.00000 0.00000             
O2    core 0.9815176 0.0013030 0.4182459 -1.2179999 1.00000 0.00000             
O2    core 0.9812794 0.7986585 0.4177220 -1.2179999 1.00000 0.00000             
O2    core 0.8150730 0.0016529 0.4181890 -1.2179999 1.00000 0.00000             
O2    core 0.8148193 0.7990347 0.4180118 -1.2179999 1.00000 0.00000             
O2    core 0.6480788 0.0015127 0.4182343 -1.2179999 1.00000 0.00000             
O2    core 0.6483782 0.7991589 0.4180624 -1.2179999 1.00000 0.00000             
O2    core 0.4820559 0.0010265 0.4181370 -1.2179999 1.00000 0.00000             
O2    core 0.4821923 0.7988493 0.4176585 -1.2179999 1.00000 0.00000             
O2    core 0.3154025 0.0008891 0.4180663 -1.2179999 1.00000 0.00000             
O2    core 0.3153443 0.7970714 0.4184653 -1.2179999 1.00000 0.00000             
O2    core 0.1492823 0.6684122 0.4182782 -1.2179999 1.00000 0.00000             
O2    core 0.1488084 0.4657653 0.4181330 -1.2179999 1.00000 0.00000             
O2    core 0.9815013 0.6677545 0.4173547 -1.2179999 1.00000 0.00000             
O2    core 0.9832565 0.4659801 0.4179587 -1.2179999 1.00000 0.00000             
O2    core 0.8151315 0.6682657 0.4181920 -1.2179999 1.00000 0.00000             
O2    core 0.8150027 0.4657547 0.4183979 -1.2179999 1.00000 0.00000             
O2    core 0.6482210 0.6683653 0.4182340 -1.2179999 1.00000 0.00000             
O2    core 0.6485181 0.4657381 0.4183969 -1.2179999 1.00000 0.00000             
O2    core 0.4819279 0.6679762 0.4175832 -1.2179999 1.00000 0.00000             
O2    core 0.4804423 0.4660009 0.4179672 -1.2179999 1.00000 0.00000             
O2    core 0.3980925 0.5674894 0.4033724 -1.2179999 1.00000 0.00000             
O2    core 0.2318851 0.2336291 0.4033477 -1.2179999 1.00000 0.00000             
O2    core 0.0660319 0.2337640 0.4032777 -1.2179999 1.00000 0.00000             
O2    core 0.8978869 0.2340355 0.4034045 -1.2179999 1.00000 0.00000             
O2    core 0.7317484 0.2338830 0.4038055 -1.2179999 1.00000 0.00000             
O2    core 0.5657054 0.2338470 0.4033969 -1.2179999 1.00000 0.00000             
O2    core 0.3977925 0.2337451 0.4032669 -1.2179999 1.00000 0.00000             
O2    core 0.2307806 0.8984403 0.4042356 -1.2179999 1.00000 0.00000             
O2    core 0.0666748 0.8993018 0.4043064 -1.2179999 1.00000 0.00000             
O2    core 0.8990566 0.9004123 0.4036976 -1.2179999 1.00000 0.00000             
O2    core 0.7317596 0.9004446 0.4035579 -1.2179999 1.00000 0.00000             
O2    core 0.5654259 0.9003491 0.4034769 -1.2179999 1.00000 0.00000             
O2    core 0.3975953 0.8993300 0.4036353 -1.2179999 1.00000 0.00000             
O2    core 0.2318819 0.5675299 0.4033620 -1.2179999 1.00000 0.00000             
O2    core 0.0657965 0.5674744 0.4033778 -1.2179999 1.00000 0.00000             
O2    core 0.8974818 0.5663657 0.4035936 -1.2179999 1.00000 0.00000             
O2    core 0.7317712 0.5670644 0.4039807 -1.2179999 1.00000 0.00000             
O2    core 0.5660797 0.5666128 0.4035856 -1.2179999 1.00000 0.00000             
O2    core 0.3977951 0.7332424 0.3954141 -1.2179999 1.00000 0.00000             
O2    core 0.2319173 0.4002777 0.3957990 -1.2179999 1.00000 0.00000             
O2    core 0.0658149 0.3999376 0.3958582 -1.2179999 1.00000 0.00000             
O2    core 0.8988665 0.4004521 0.3960223 -1.2179999 1.00000 0.00000             
O2    core 0.7317857 0.4003002 0.3961248 -1.2179999 1.00000 0.00000             
O2    core 0.5647424 0.4004452 0.3960095 -1.2179999 1.00000 0.00000             
O2    core 0.3979901 0.3999247 0.3958460 -1.2179999 1.00000 0.00000             
O2    core 0.2319265 0.0665389 0.3957121 -1.2179999 1.00000 0.00000             
O2    core 0.0657460 0.0660995 0.3957274 -1.2179999 1.00000 0.00000             
O2    core 0.8984161 0.0667891 0.3958223 -1.2179999 1.00000 0.00000             
O2    core 0.7316406 0.0665771 0.3958597 -1.2179999 1.00000 0.00000             
O2    core 0.5651252 0.0667480 0.3958008 -1.2179999 1.00000 0.00000             
O2    core 0.3982426 0.0660954 0.3956997 -1.2179999 1.00000 0.00000             
O2    core 0.2318973 0.7331627 0.3954840 -1.2179999 1.00000 0.00000             
O2    core 0.0662215 0.7332891 0.3954074 -1.2179999 1.00000 0.00000             
O2    core 0.8985425 0.7334929 0.3956986 -1.2179999 1.00000 0.00000             
O2    core 0.7316346 0.7334421 0.3958225 -1.2179999 1.00000 0.00000             
O2    core 0.5649754 0.7335336 0.3956869 -1.2179999 1.00000 0.00000             
O2    core 0.3151642 0.5021661 0.3812759 -1.2179999 1.00000 0.00000             
O2    core 0.3151118 0.6316825 0.3810848 -1.2179999 1.00000 0.00000             
O2    core 0.1486353 0.1685625 0.3811402 -1.2179999 1.00000 0.00000             
O2    core 0.1487669 0.2983103 0.3811182 -1.2179999 1.00000 0.00000             
O2    core 0.9819358 0.1687792 0.3813145 -1.2179999 1.00000 0.00000             
O2    core 0.9820424 0.2982859 0.3812980 -1.2179999 1.00000 0.00000             
O2    core 0.8150101 0.1685940 0.3812607 -1.2179999 1.00000 0.00000             
O2    core 0.8150709 0.2984868 0.3813185 -1.2179999 1.00000 0.00000             
O2    core 0.6485740 0.1685832 0.3812449 -1.2179999 1.00000 0.00000             
O2    core 0.6485369 0.2984830 0.3813216 -1.2179999 1.00000 0.00000             
O2    core 0.4817421 0.1687435 0.3812984 -1.2179999 1.00000 0.00000             
O2    core 0.4816686 0.2982680 0.3812926 -1.2179999 1.00000 0.00000             
O2    core 0.3151843 0.1685480 0.3811433 -1.2179999 1.00000 0.00000             
O2    core 0.3150023 0.2982959 0.3811261 -1.2179999 1.00000 0.00000             
O2    core 0.1486349 0.8347761 0.3813375 -1.2179999 1.00000 0.00000             
O2    core 0.1487196 0.9647897 0.3814575 -1.2179999 1.00000 0.00000             
O2    core 0.9823279 0.8351907 0.3814679 -1.2179999 1.00000 0.00000             
O2    core 0.9823558 0.9647735 0.3815631 -1.2179999 1.00000 0.00000             
O2    core 0.8152677 0.8354045 0.3813792 -1.2179999 1.00000 0.00000             
O2    core 0.8153182 0.9648686 0.3813736 -1.2179999 1.00000 0.00000             
O2    core 0.6484817 0.8353421 0.3812638 -1.2179999 1.00000 0.00000             
O2    core 0.6484333 0.9649194 0.3812574 -1.2179999 1.00000 0.00000             
O2    core 0.4816087 0.8352683 0.3812983 -1.2179999 1.00000 0.00000             
O2    core 0.4815892 0.9646854 0.3813925 -1.2179999 1.00000 0.00000             
O2    core 0.3148407 0.8349911 0.3813950 -1.2179999 1.00000 0.00000             
O2    core 0.3147469 0.9645494 0.3815070 -1.2179999 1.00000 0.00000             
O2    core 0.1486145 0.5021472 0.3812631 -1.2179999 1.00000 0.00000             