opti   fix molmec phon pot prop comp conv  
cell
  17.724000  19.461000  130.0   90.000000  90.000000  90.000000
Cart
Ti    5.671680   14.271398   38.971210
Ti    2.636938    7.769238   39.206482
Ti   17.404776    7.779805   39.206573
Ti   14.446137    7.782115   39.214752
Ti   11.525396    7.772422   39.030144
Ti    8.528190    7.785354   39.060452
Ti    5.602507    7.773148   39.211800
Ti    2.634300    1.281199   39.148998
Ti   17.408178    1.282172   39.201176
Ti   14.454916    1.288474   39.203255
Ti   11.501281    1.279247   39.194706
Ti    8.540341    1.282577   39.196636
Ti    5.590742    1.281059   39.198612
Ti    2.550390   14.271619   38.899372
Ti   17.393591   14.268024   39.216118
Ti   14.454226   14.258836   39.214005
Ti   11.505208   14.245590   39.213612
Ti    8.561197   14.242058   39.223454
Ti    1.159524    4.520008   38.954357
Ti   15.924949    4.532373   38.957317
Ti   12.969367    4.541615   38.948666
Ti   15.944921   17.501930   38.956226
Ti   10.015368   17.482069   38.957119
Ti    7.051125   17.501940   38.959026
Ti   15.926026   11.022360   38.943398
Ti   10.022411   10.993735   39.106865
Ti    7.071258   11.034860   38.925755
Ti    4.120637    4.513121   38.950737
Ti   10.023377    4.489732   38.983158
Ti    7.077064    4.544118   38.953411
Ti    4.094393   17.531870   39.124516
Ti    1.171496   17.510847   39.132996
Ti   12.980844   17.499178   38.961472
Ti    4.119022   10.974085   38.900951
Ti    1.160041   11.039873   38.945236
Ti   12.973346   11.024964   38.921333
Ti    5.591552   11.017071   35.790840
Ti    2.637796    4.530023   35.835560
Ti   17.406260    4.531206   35.835594
Ti   14.454546    4.528491   35.826885
Ti   11.498477    4.524529   35.840984
Ti    8.547149    4.524564   35.841824
Ti    5.591573    4.528867   35.825451
Ti    2.635892   17.508133   35.999195
Ti   17.410330   17.505655   35.890869
Ti   14.451928   17.501999   35.836849
Ti   11.499776   17.497816   35.840469
Ti    8.547787   17.499216   35.830841
Ti    5.587741   17.505131   35.891342
Ti    2.633822   11.016063   35.809052
Ti   17.405539   11.015352   35.819607
Ti   14.456691   11.018820   35.809513
Ti   11.493863   11.009860   35.887119
Ti    8.553574   11.009194   35.883327
Ti    7.098047   14.252423   35.860001
Ti    4.111463    7.772344   35.920116
Ti    1.160941    7.769355   35.923008
Ti   15.934496    7.773558   35.923130
Ti   12.992249    7.765361   35.882423
Ti   10.021068    7.765546   35.884254
Ti    7.055627    7.761641   35.888519
Ti    4.116973    1.288172   35.921696
Ti    1.157928    1.288680   35.922844
Ti   15.929526    1.286240   35.927040
Ti   12.976357    1.281059   35.924561
Ti   10.022108    1.280826   35.923138
Ti    7.068746    1.283957   35.924313
Ti    4.117074   14.264012   35.866917
Ti    1.126660   14.262152   35.846581
Ti   15.921235   14.261288   35.924671
Ti   12.976575   14.253386   35.928425
Ti   10.031603   14.252892   35.933212
Ti    5.591959   14.258018   32.691051
Ti    2.636512    7.771850   32.720764
Ti   17.408684    7.771667   32.722031
Ti   14.456563    7.770855   32.714714
Ti   11.499558    7.770195   32.698895
Ti    8.545430    7.770100   32.700108
Ti    5.589315    7.771048   32.715004
Ti    2.637283    1.283850   32.734577
Ti   17.407537    1.283692   32.737198
Ti   14.453123    1.283402   32.733242
Ti   11.499420    1.283426   32.728725
Ti    8.545687    1.282610   32.731354
Ti    5.591424    1.283031   32.736012
Ti    2.637211   14.259958   32.681870
Ti   17.401655   14.259661   32.708233
Ti   14.450955   14.257681   32.730965
Ti   11.499928   14.256622   32.729797
Ti    8.551731   14.257185   32.712868
Ti    7.076940   11.013482   32.722477
Ti    4.113802    4.526541   32.725140
Ti    1.160548    4.527722   32.727516
Ti   15.931351    4.527024   32.725689
Ti   12.975838    4.527575   32.725285
Ti   10.022421    4.526903   32.727859
Ti    7.069416    4.527384   32.725792
Ti    4.106525   17.501068   32.786781
Ti    1.167531   17.501860   32.787510
Ti   15.936312   17.501720   32.749126
Ti   12.977477   17.501171   32.732742
Ti   10.022429   17.500483   32.730976
Ti    7.061908   17.500053   32.745548
Ti    4.114311   11.014613   32.702766
Ti    1.158439   11.016804   32.708904
Ti   15.928944   11.013460   32.713959
Ti   12.970271   11.012295   32.730736
Ti   10.023821   11.011773   32.748421
Ti    5.593594   11.014354   29.604395
Ti    2.637436    4.527504   29.619823
Ti   17.407629    4.527308   29.619858
Ti   14.453578    4.527096   29.618280
Ti   11.499331    4.526815   29.618151
Ti    8.545575    4.526917   29.618435
Ti    5.591614    4.527290   29.618185
Ti    2.637491   17.501219   29.663059
Ti   17.410727   17.501307   29.650349
Ti   14.455469   17.501501   29.632130
Ti   11.499572   17.501511   29.625051
Ti    8.543397   17.501244   29.628870
Ti    5.587963   17.501162   29.646969
Ti    2.637388   11.014533   29.600491
Ti   17.406446   11.014627   29.605871
Ti   14.451534   11.014118   29.614220
Ti   11.498219   11.014036   29.626089
Ti    8.547611   11.014262   29.622004
Ti    7.071112   14.258253   29.516895
Ti    4.113776    7.770851   29.522053
Ti    1.160394    7.770764   29.524765
Ti   15.931364    7.770885   29.523066
Ti   12.977834    7.770472   29.517984
Ti   10.022518    7.770351   29.514654
Ti    7.067397    7.770658   29.517487
Ti    4.114192    1.283784   29.541920
Ti    1.160656    1.283472   29.542614
Ti   15.931273    1.283208   29.539747
Ti   12.976990    1.283327   29.535955
Ti   10.022068    1.283062   29.535320
Ti    7.067622    1.283068   29.538359
Ti    4.115002   14.257909   29.509068
Ti    1.157666   14.258269   29.514448
Ti   15.927818   14.258363   29.525984
Ti   12.976253   14.258022   29.532873
Ti   10.024579   14.258440   29.527819
 O2    6.992347   14.212757   40.150368
 O2    4.124453    7.840055   40.208717
 O2    1.161431    7.794138   40.211540
 O2   15.921456    7.792974   40.217274
 O2   12.902507    7.795475   40.176903
 O3   10.050580    4.496464   40.897701
 H22   10.047665    3.891476   41.650356
 O2    7.133091    7.794416   40.182930
 O2    4.102401    1.321256   40.179737
 O2    1.172701    1.348571   40.182903
 O2   15.927722    1.335412   40.208904
 O2   12.973711    1.281106   40.205750
 O2   10.021584    1.322492   40.196693
 O2    7.069674    1.301011   40.207737
 O3    4.095407   14.272711   40.183418
 H22    4.026925   14.520306   41.116657
 O2    1.255733   14.167639   40.107719
 O2   15.932041   14.211582   40.229527
 O2   12.979863   14.266215   40.220139
 O2   10.024517   14.270940   40.227562
 O2    2.641794    3.365387   39.088551
 O2   17.395042    3.368886   39.112930
 O2   14.439874    3.365457   39.113960
 O2   11.524269    3.349028   39.083828
 O2    8.524810    3.353907   39.084801
 O2    5.609694    3.368627   39.118637
 O2    2.675689   16.172520   38.903938
 O2   17.369057   16.268841   39.109566
 O2   14.457183   16.314688   39.135868
 O2   11.499214   16.314457   39.126396
 O2    8.522658   16.298752   39.146801
 O2    5.612677   16.225269   39.076897
 O2   17.410810    9.845572   39.112690
 O2    8.459321    9.769438   38.927513
 O2    5.605398    9.853393   39.118191
 O2    2.627746    9.863108   39.114731
 O2   14.451942    9.830134   39.122482
 O2   11.579802    9.757877   38.926750
 O2    5.539023   12.243837   39.112312
 O2    2.648854    5.720958   39.136314
 O2   17.407263    5.723533   39.129227
 O2   14.442132    5.726006   39.151848
 O2   11.476688    5.756498   39.103592
 O2    8.569797    5.759787   39.115959
 O2    5.593923    5.728437   39.151890
 O2   17.358387   18.716179   39.097610
 O2    8.550596   18.669722   39.133484
 O2    5.637430   18.696465   39.102409
 O2    2.698949   12.241142   39.073429
 O2   17.410528   12.197475   39.124947
 O2   14.452738   12.194070   39.118053
 O2   11.523144   12.198949   39.119308
 O2    8.508229   12.207654   39.131237
 O2    2.639595   18.763931   38.924732
 O2   14.450832   18.682369   39.131752
 O2   11.490250   18.674559   39.127037
 O2    7.123263   14.230334   37.770084
 O2    4.118111    7.795631   37.837948
 O2    1.167670    7.776756   37.835461
 O2   15.930654    7.776026   37.838070
 O2   13.017211    7.719359   37.791924
 O2   10.018127    7.719091   37.846539
 O2    7.031004    7.724491   37.800335
 O2    4.147318    1.348774   37.810162
 O2    1.134001    1.348610   37.809998
 O2   15.910445    1.300602   37.828621
 O2   12.973957    1.274927   37.829914
 O2   10.021670    1.277410   37.828327
 O2    7.081254    1.282661   37.826611
 O2    4.140617   14.192399   37.894596
 O2    1.076905   14.188760   37.740650
 O2   15.912054   14.241700   37.837803
 O2   12.978734   14.252519   37.839039
 O2   10.022717   14.269911   37.847336
 O2    7.020108   11.057826   37.066456
 O2    4.123621    4.547779   37.081535
 O2    1.160030    4.547105   37.082859
 O2   15.922930    4.546354   37.085491
 O2   12.979149    4.552699   37.081440
 O2   10.022449    4.532562   37.095978
 O2    7.065760    4.556542   37.083931
 O2    4.170785   17.491783   37.156410
 O2    1.110740   17.481556   37.161888
 O2   15.900255   17.494682   37.089363
 O2   12.971522   17.499975   37.090195
 O2   10.019083   17.487995   37.088299
 O2    7.098437   17.482786   37.092915
 O2    4.117951   11.008537   37.051105
 O2    1.170204   11.034592   37.075924
 O2   15.935625   11.016491   37.073357
 O2   13.013588   11.032645   37.062889
 O2   10.016550   11.029092   37.141239
 O2    5.583780   12.997443   35.877567
 O2    5.590476    9.050305   35.865246
 O2    2.640029    6.504475   35.888226
 O2    2.639477    2.570491   35.873631
 O2   17.408283    6.503561   35.885601
 O2   17.398521    2.571526   35.870781
 O2   14.463605    6.496811   35.854713
 O2   14.446075    2.565956   35.882210
 O2   11.496123    6.502545   35.885094
 O2   11.498482    2.561153   35.888767
 O2    8.548092    6.502356   35.882366
 O2    8.548048    2.562901   35.885731
 O2    5.581600    6.500009   35.860466
 O2    5.603319    2.570164   35.868549
 O2    2.639692    0.019558   35.912426
 O2    2.641835   15.495317   35.947956
 O2   17.403872    0.016361   35.887650
 O2   17.390705   15.527405   35.856232
 O2   14.448986    0.011717   35.880554
 O2   14.444818   15.529453   35.883438
 O2   11.496751    0.006763   35.886433
 O2   11.500976   15.528628   35.888844
 O2    8.546591    0.006420   35.879406
 O2    8.556730   15.527286   35.855659
 O2    5.597668    0.012523   35.885059
 O2    5.595600   15.501959   35.920811
 O2    2.645761   12.996319   35.896439
 O2    2.637539    9.053088   35.881680
 O2   17.391621   12.973605   35.830326
 O2   17.414803    9.050552   35.886124
 O2   14.455182   12.983146   35.867836
 O2   14.458031    9.045502   35.867588
 O2   11.499689   12.980491   35.897221
 O2   11.495939    9.025969   35.908867
 O2    8.557178   12.976254   35.863083
 O2    8.541717    9.030879   35.906292
 O2    7.087119   11.011814   34.626640
 O2    4.112404    4.532940   34.624943
 O2    1.160841    4.538971   34.628193
 O2   15.931818    4.531210   34.625500
 O2   12.970232    4.533689   34.627651
 O2   10.022780    4.535962   34.633762
 O2    7.075656    4.538068   34.628075
 O2    4.095393   17.473967   34.698814
 O2    1.186078   17.485794   34.698082
 O2   15.939386   17.505207   34.645050
 O2   12.974099   17.501167   34.632538
 O2   10.025326   17.503145   34.630638
 O2    7.051950   17.485271   34.647297
 O2    4.109579   11.031034   34.605831
 O2    1.162772   11.023104   34.614841
 O2   15.931522   11.002967   34.612946
 O2   12.957157   11.000139   34.630253
 O2   10.024526   10.988726   34.661003
 O2    7.060756   14.252133   33.941704
 O2    4.113925    7.779443   33.962276
 O2    1.162377    7.775541   33.966644
 O2   15.932790    7.777048   33.962250
 O2   12.970173    7.771461   33.949146
 O2   10.021625    7.772708   33.949875
 O2    7.073523    7.772223   33.951523
 O2    4.115540    1.287614   33.972118
 O2    1.161518    1.289009   33.972565
 O2   15.926683    1.289030   33.971439
 O2   12.972569    1.286055   33.970497
 O2   10.023485    1.286674   33.970409
 O2    7.072526    1.286374   33.970573
 O2    4.111828   14.256757   33.942402
 O2    1.173006   14.252872   33.935535
 O2   15.931213   14.256827   33.958858
 O2   12.972972   14.254157   33.970600
 O2   10.021418   14.252927   33.966721
 O2    5.593406    9.756886   32.727318
 O2    5.594752   12.273817   32.721672
 O2    2.637547    3.269094   32.725784
 O2    2.638634    5.792571   32.722694
 O2   17.407860    3.268745   32.725834
 O2   17.407839    5.791870   32.723114
 O2   14.451629    3.268687   32.728252
 O2   14.453066    5.790330   32.722580
 O2   11.497869    3.267823   32.727406
 O2   11.497757    5.790613   32.719604
 O2    8.546578    3.267737   32.728195
 O2    8.546382    5.791097   32.718925
 O2    5.593710    3.269197   32.729618
 O2    5.591864    5.791345   32.723286
 O2    2.638760   16.231426   32.733360
 O2    2.639295   18.764381   32.751415
 O2   17.414297   16.237932   32.741917
 O2   17.414663   18.761602   32.754078
 O2   14.454654   16.240038   32.736759
 O2   14.454156   18.761976   32.736649
 O2   11.498917   16.238749   32.729481
 O2   11.498758   18.762665   32.727627
 O2    8.542371   16.238300   32.733284
 O2    8.541739   18.759043   32.740757
 O2    5.585151   16.234577   32.741375
 O2    5.585640   18.759060   32.756626
 O2    2.637448    9.756734   32.717915
 O2    2.638684   12.277184   32.706387
 O2   17.410122    9.754481   32.716164
 O2   17.406740   12.275743   32.710026
 O2   14.450708    9.752269   32.721073
 O2   14.449831   12.271384   32.730862
 O2   11.495586    9.747449   32.717106
 O2   11.494658   12.273677   32.729988
 O2    8.547695    9.749202   32.718960
 O2    8.549716   12.275063   32.723267
 O2    7.073414   14.256761   31.468573
 O2    4.113781    7.776769   31.477585
 O2    1.161312    7.773858   31.479713
 O2   15.932793    7.772942   31.477301
 O2   12.980186    7.769283   31.469963
 O2   10.021602    7.767082   31.466368
 O2    7.064094    7.773142   31.471096
 O2    4.116213    1.286555   31.492886
 O2    1.160117    1.285831   31.492861
 O2   15.931329    1.282369   31.491856
 O2   12.976905    1.284426   31.488638
 O2   10.020786    1.282075   31.488501
 O2    7.067246    1.280579   31.491306
 O2    4.118157   14.249031   31.460516
 O2    1.154066   14.252616   31.462969
 O2   15.923686   14.256704   31.478296
 O2   12.976201   14.256543   31.486732
 O2   10.026261   14.261083   31.480795
 O2    7.064870   11.014128   30.820120
 O2    4.115733    4.529980   30.823904
 O2    1.160802    4.530676   30.824728
 O2   15.929751    4.529480   30.823980
 O2   12.975877    4.529335   30.823303
 O2   10.022281    4.528754   30.823929
 O2    7.068748    4.529542   30.823826
 O2    4.118230   17.499077   30.862307
 O2    1.159118   17.500238   30.862934
 O2   15.928746   17.500214   30.844294
 O2   12.975409   17.499832   30.831654
 O2   10.021373   17.499949   30.830580
 O2    7.069687   17.499222   30.841959
 O2    4.115561   11.014471   30.808113
 O2    1.162457   11.014782   30.809212
 O2   15.931042   11.013714   30.815203
 O2   12.977857   11.013961   30.825817
 O2   10.021001   11.013179   30.832478
 O2    5.593310   12.982271   29.555273
 O2    5.590995    9.046938   29.557461
 O2    2.637943    6.497053   29.564857
 O2    2.637881    2.560126   29.574924
 O2   17.407951    6.496562   29.564034
 O2   17.407440    2.559962   29.573980
 O2   14.454461    6.495862   29.560980
 O2   14.453551    2.559519   29.573071
 O2   11.499695    6.495860   29.559666
 O2   11.498874    2.559166   29.572531
 O2    8.544471    6.496290   29.560335
 O2    8.544944    2.559139   29.573423
 O2    5.590774    6.496708   29.562258
 O2    5.592181    2.559863   29.573801
 O2    2.638274    0.008343   29.588646
 O2    2.637868   15.530145   29.575346
 O2   17.408344    0.008214   29.583866
 O2   17.405861   15.531985   29.572212
 O2   14.453799    0.008631   29.577190
 O2   14.452331   15.533023   29.569801
 O2   11.499033    0.008757   29.574265
 O2   11.499941   15.533173   29.567905
 O2    8.544409    0.008045   29.576357
 O2    8.546335   15.532606   29.566429
 O2    5.590885    0.007860   29.583111
 O2    5.592062   15.530910   29.570162
 O2    2.637601   12.982591   29.552990
 O2    2.637874    9.047134   29.557856
 O2   17.405165   12.981898   29.556259
 O2   17.408268    9.046771   29.559271
 O2   14.452031   12.981485   29.564480
 O2   14.454042    9.045901   29.560369
 O2   11.499292   12.981855   29.569304
 O2   11.499334    9.044877   29.563356
 O2    8.547109   12.982223   29.564713
 O2    8.544714    9.045488   29.562000
 O2    7.073375   11.014525   28.362743
 O2    4.114487    4.528446   28.368708
 O2    1.160844    4.528555   28.369394
 O2   15.930861    4.527652   28.368580
 O2   12.976261    4.526905   28.367601
 O2   10.022079    4.527462   28.367558
 O2    7.068599    4.528142   28.367893
 O2    4.110545   17.498016   28.398924
 O2    1.164394   17.498573   28.400297
 O2   15.935757   17.501331   28.387709
 O2   12.978463   17.503040   28.377316
 O2   10.020636   17.502195   28.376020
 O2    7.062853   17.499971   28.384970
 O2    4.116373   11.016149   28.353802
 O2    1.159419   11.015551   28.354403
 O2   15.927519   11.013669   28.360254
 O2   12.972777   11.012651   28.368587
 O2   10.023360   11.012818   28.371695
 O176   12.056149    8.935797   41.224979
 O177    2.570792   17.471781   48.585464
 O176   12.056149    6.546764   41.224979
 O177    4.746591   17.471781   48.585464
 O176    4.282048   17.471781   41.224979
 O177   12.520693    8.935797   48.585464
 O176    2.106249   17.471781   41.224979
 O177   12.520692    6.546764   48.585464
 O171    3.860670   17.471781   51.785725
 O171   12.722671    7.741280   51.785725
 O170    5.430975   14.611597   52.630375
 O170    1.202465   19.137447   50.941074
 O170    6.412258   15.806114   50.941074
 O170    2.396981    0.870963   52.630375
 O170    6.412257   19.137447   50.941074
 O170    1.202465   15.806113   50.941074
 O170    5.430975    0.870963   52.630375
 O170    2.396981   14.611598   52.630375
 O170    4.062648   18.666296   54.985985
 O170   12.301292    7.741281   62.346470
 O170    4.062648   16.277264   54.985985
 O170   14.477091    7.741280   62.346470
 O170   14.012547    7.741281   54.985985
 O170    4.527192   18.666296   62.346470
 O170   11.836749    7.741280   54.985985
 O170    4.527191   16.277264   62.346470
 O170   10.171082    6.075613   52.630375
 O170   14.186358   10.601463   50.941074
 O170   11.152365    4.881097   50.941074
 O170   15.380876    9.406947   52.630375
 O170   14.186359    4.881097   50.941074
 O170   11.152365   10.601463   50.941074
 O170   15.380875    6.075613   52.630375
 O170   10.171082    9.406947   52.630375
 O171   13.591170    7.741280   65.546730
 O171    4.729170   17.471781   65.546730
 O170   15.161475    4.881097   66.391380
 O170   10.932965    9.406947   64.702080
 O170   16.142757    6.075613   64.702080
 O170   12.127481   10.601463   66.391380
 O170   16.142757    9.406947   64.702080
 O170   10.932965    6.075613   64.702080
 O170   15.161476   10.601463   66.391380
 O170   12.127481    4.881097   66.391380
 O170   13.793148    8.935797   68.746986
 O170    4.307792   17.471781   76.107475
 O170   13.793149    6.546764   68.746986
 O170    6.483590   17.471781   76.107475
 O170    6.019047   17.471781   68.746986
 O170   14.257692    8.935797   76.107475
 O170    3.843249   17.471781   68.746986
 O170   14.257691    6.546764   76.107475
 O170    2.177582   15.806114   66.391380
 O170    6.192858    0.870963   64.702080
 O170    3.158864   14.611597   64.702080
 O170    7.387374   19.137447   66.391380
 O170    6.192858   14.611598   64.702080
 O170    3.158864    0.870963   64.702080
 O170    7.387374   15.806113   66.391380
 O170    2.177582   19.137447   66.391380
 O171    5.597670   17.471781   79.307739
 O171   14.459670    7.741280   79.307739
 O170    7.167975   14.611597   80.152390
 O170    2.939465   19.137447   78.463089
 O170    8.149258   15.806114   78.463089
 O170    4.133981    0.870963   80.152390
 O170    8.149257   19.137447   78.463089
 O170    2.939465   15.806113   78.463089
 O170    7.167975    0.870963   80.152390
 O170    4.133981   14.611598   80.152390
 O170    5.799647   18.666296   82.507996
 O173   14.038292    7.741281   89.868484
 O170    5.799648   16.277264   82.507996
 O172   16.214090    7.741280   89.868484
 H21   16.214090    7.741280   90.868484
 O170   15.749547    7.741281   82.507996
 O173    6.264191   18.666296   89.868484
 O170   13.573749    7.741280   82.507996
 O172    6.264190   16.277264   89.868484
 H21    6.264190   16.277264   90.868484
 O170   11.908082    6.075613   80.152390
 O170   15.923358   10.601463   78.463089
 O170   12.889364    4.881097   78.463089
 O170   17.117874    9.406947   80.152390
 O170   15.923359    4.881097   78.463081
 O170   12.889364   10.601463   78.463081
 O170   17.117874    6.075613   80.152390
 O170   11.908082    9.406947   80.152390
 C912   12.241921    9.024149   44.168457
 C912    2.304554   17.471781   45.641987
 C912   12.241920    6.458411   44.168457
 C912    4.641285   17.471781   45.641987
 C912    4.548286   17.471781   44.168457
 C912   12.334920    9.024149   45.641987
 C912    2.211555   17.471781   44.168457
 C912   12.334920    6.458411   45.641987
 C916   12.094676    7.741280   41.835419
 C917    3.620165   17.471781   47.975029
 C916    3.232675   17.471781   41.835419
 C917   12.482164    7.741280   47.975025
 C902   12.195091    7.741280   43.426464
 C902    3.519749   17.471781   46.383980
 C902    3.333091   17.471781   43.426464
 C902   12.381749    7.741280   46.383980
 C912   7.290267   12.486067   52.692852
 C912  16.986708    1.713625   50.878601
 C912   8.344131   13.768936   50.878601
 C912   0.545576    2.996494   52.692852
 C912   8.344131    1.713625   50.878601
 C912  16.986708   13.768936   50.878601
 C912   7.290267    2.996494   52.692852
 C912   0.545576   12.486067   52.692852
 C912    4.248420   18.754648   57.929462
 C912   12.035053    7.741280   59.402992
 C912    4.248420   16.188911   57.929462
 C912   14.371786    7.741280   59.402992
 C912   14.278787    7.741280   57.929462
 C912    4.341419   18.754648   59.402992
 C912   11.942055    7.741280   57.929462
 C912    4.341419   16.188911   59.402992
 C912    8.239210    4.038435   52.692852
 C912   16.037766   12.726994   50.878601
 C912    9.293073    2.755566   50.878601
 C912   17.320633   11.444125   52.692852
 C912   16.037766    2.755566   50.878601
 C912    9.293073   12.726994   50.878601
 C912   17.320633    4.038435   52.692852
 C912    8.239210   11.444125   52.692852
 C913    6.314735   14.777210   51.785725
 C913    1.406605    0.705350   51.785725
 C913    6.314735    0.705350   51.785725
 C913    1.406604   14.777210   51.785725
 C913    4.101175   17.471781   55.596424
 C913   13.350665    7.741280   61.736034
 C913   12.963175    7.741280   55.596424
 C913    4.488664   17.471781   61.736031
 C913   10.268604    5.046710   51.785725
 C913   15.176736   10.435850   51.785725
 C913   15.176735    5.046710   51.785725
 C913   10.268604   10.435851   51.785725
 C902   7.339359   13.652170   51.785725
 C902   0.381980    1.830390   51.785725
 C902   7.339359    1.830390   51.785725
 C902   0.381980   13.652170   51.785725
 C902    4.201591   17.471781   57.187469
 C902   13.250249    7.741281   60.144985
 C902   13.063591    7.741280   57.187469
 C902    4.388249   17.471781   60.144985
 C902    9.243980    3.921670   51.785725
 C902   16.201361   11.560890   51.785725
 C902   16.201361    3.921670   51.785725
 C902    9.243980   11.560890   51.785725
 C912  17.020767    2.755567   66.453857
 C912   8.993207   11.444125   64.639603
 C912   0.350629    4.038435   64.639603
 C912  10.276075   12.726994   66.453857
 C912   0.350630   11.444125   64.639603
 C912   8.993207    4.038435   64.639603
 C912  17.020767   12.726994   66.453857
 C912  10.276075    2.755566   66.453857
 C912   13.978921    9.024149   71.690468
 C912    4.041553   17.471781   73.163994
 C912   13.978920    6.458411   71.690468
 C912    6.378285   17.471781   73.163994
 C912    6.285286   17.471781   71.690468
 C912   14.071919    9.024149   73.163994
 C912    3.948554   17.471781   71.690468
 C912   14.071919    6.458411   73.163994
 C912    0.245709   13.768936   66.453857
 C912    8.044264    2.996494   64.639603
 C912    1.299572   12.486067   64.639603
 C912    9.327133    1.713625   66.453857
 C912    8.044264   12.486067   64.639603
 C912    1.299572    2.996494   64.639603
 C912    9.327133   13.768936   66.453857
 C912    0.245709    1.713625   66.453857
 C913  16.045235    5.046710   65.546730
 C913   11.137105   10.435850   65.546730
 C913   16.045235   10.435850   65.546730
 C913   11.137105    5.046710   65.546730
 C913   13.831676    7.741280   69.357430
 C913    5.357164   17.471781   75.497040
 C913    4.969674   17.471781   69.357430
 C913   14.219164    7.741280   75.497040
 C913    2.275104   14.777209   65.546730
 C913    7.183235    0.705350   65.546730
 C913    7.183234   14.777209   65.546730
 C913    2.275104    0.705351   65.546730
 C902  17.069859    3.921670   65.546730
 C902  10.112480   11.560890   65.546730
 C902  17.069859   11.560890   65.546730
 C902  10.112481    3.921670   65.546730
 C902   13.932091    7.741280   70.948479
 C902    5.256749   17.471781   73.905991
 C902    5.070090   17.471781   70.948479
 C902   14.118749    7.741280   73.905991
 C902    1.250480   13.652170   65.546730
 C902    8.207859    1.830390   65.546730
 C902    8.207859   13.652170   65.546730
 C902    1.250480    1.830390   65.546730
 C912   9.027267   12.486067   80.214859
 C912   0.999706    1.713625   78.400612
 C912  10.081130   13.768936   78.400612
 C912   2.282575    2.996494   80.214859
 C912  10.081130    1.713625   78.400612
 C912   0.999706   13.768936   78.400612
 C912   9.027267    2.996494   80.214859
 C912   2.282575   12.486067   80.214859
 C912    5.985420   18.754648   85.451477
 C912   13.772053    7.741280   86.925003
 C912    5.985420   16.188911   85.451477
 C912   16.108786    7.741280   86.925003
 C912   16.015787    7.741280   85.451477
 C912    6.078419   18.754648   86.925003
 C912   13.679054    7.741280   85.451477
 C912    6.078419   16.188911   86.925003
 C912    9.976210    4.038435   80.214859
 C912    0.050763   12.726994   78.400612
 C912   11.030072    2.755566   78.400612
 C912    1.333632   11.444125   80.214859
 C912    0.050763    2.755566   78.400612
 C912   11.030072   12.726994   78.400612
 C912    1.333632    4.038435   80.214859
 C912    9.976210   11.444125   80.214859
 C913    8.051735   14.777210   79.307739
 C913    3.143604    0.705350   79.307739
 C913    8.051735    0.705350   79.307739
 C913    3.143604   14.777210   79.307739
 C913    5.838174   17.471781   83.118431
 C914   15.087665    7.741280   89.258041
 C913   14.700174    7.741280   83.118431
 C914    6.225663   17.471781   89.258041
 C913   12.005604    5.046710   79.307739
 C913   16.913734   10.435850   79.307732
 C913   16.913734    5.046710   79.307739
 C913   12.005604   10.435851   79.307739
 C902    9.076359   13.652170   79.307739
 C902    2.118980    1.830390   79.307739
 C902    9.076359    1.830390   79.307739
 C902    2.118980   13.652170   79.307739
 C902    5.938590   17.471781   84.709480
 C902   14.987248    7.741281   87.667000
 C902   14.800591    7.741280   84.709480
 C902    6.125248   17.471781   87.667000
 C902   10.980980    3.921670   79.307739
 C902    0.214358   11.560890   79.307739
 C902    0.214358    3.921670   79.307739
 C902   10.980980   11.560890   79.307739
 H915   12.210082    9.897559   43.663979
 H915    1.540939   17.471781   46.146465
 H915   12.210082    5.585001   43.663979
 H915    5.468578   17.471781   46.146465
 H915    5.311901   17.471781   43.663979
 H915   12.366759    9.897559   46.146465
 H915    1.384262   17.471781   43.663979
 H915   12.366758    5.585001   46.146465
 H915    6.606637   12.406082   53.310444
 H915   16.874884    0.920199   50.261005
 H915    8.377997   14.562361   50.261005
 H915    1.307162    3.076478   53.310444
 H915    8.377997    0.920200   50.261005
 H915   16.874884   14.562361   50.261005
 H915    6.606638    3.076478   53.310444
 H915    1.307162   12.406082   53.310444
 H915    4.216581    0.167059   57.424984
 H915   11.271440    7.741280   59.907471
 H915    4.216581   15.315501   57.424984
 H915   15.199079    7.741280   59.907471
 H915   15.042400    7.741281   57.424984
 H915    4.373259    0.167059   59.907471
 H915   11.114762    7.741280   57.424984
 H915    4.373258   15.315501   59.907471
 H915    8.205342    4.831861   53.310444
 H915   15.276178   12.806979   50.261005
 H915    9.976703    2.675582   50.261005
 H915   17.432457   10.650700   53.310444
 H915   15.276179    2.675582   50.261005
 H915    9.976702   12.806978   50.261005
 H915   17.432457    4.831861   53.310444
 H915    8.205343   10.650700   53.310444
 H915   16.337137    2.675582   67.071449
 H915    8.881383   10.650700   64.022011
 H915    0.384497    4.831861   64.022011
 H915   11.037662   12.806978   67.071449
 H915    0.384497   10.650700   64.022011
 H915    8.881383    4.831861   64.022011
 H915   16.337137   12.806978   67.071449
 H915   11.037662    2.675582   67.071449
 H915   13.947082    9.897559   71.185989
 H915    3.277939   17.471781   73.668472
 H915   13.947082    5.585001   71.185989
 H915    7.205577   17.471781   73.668472
 H915    7.048900   17.471781   71.185989
 H915   14.103759    9.897559   73.668472
 H915    3.121262   17.471781   71.185989
 H915   14.103758    5.585001   73.668472
 H915    0.211842   14.562361   67.071449
 H915    7.282678    3.076479   64.022011
 H915    1.983202   12.406082   64.022011
 H915    9.438957    0.920199   67.071449
 H915    7.282678   12.406082   64.022011
 H915    1.983202    3.076478   64.022011