opti  fix molmec phon pot prop comp conv  
cell
  17.724000  19.461000 114.868482  90.000000  90.000000  90.000000
fractional  1   
Ti    core 0.3200000 0.7333332 0.3392680 2.43599999 1.00000 0.00000             
Ti    core 0.1465920 0.3988733 0.3416243 2.43599999 1.00000 0.00000             
Ti    core 0.9806049 0.3993589 0.3416905 2.43599999 1.00000 0.00000             
Ti    core 0.8173851 0.4004296 0.3390487 2.43599999 1.00000 0.00000             
Ti    core 0.6499862 0.3988096 0.3404057 2.43599999 1.00000 0.00000             
Ti    core 0.4874141 0.3994480 0.3395496 2.43599999 1.00000 0.00000             
Ti    core 0.3106303 0.3982346 0.3392705 2.43599999 1.00000 0.00000             
Ti    core 0.1481482 0.0655962 0.3409827 2.43599999 1.00000 0.00000             
Ti    core 0.9816175 0.0655773 0.3414703 2.43599999 1.00000 0.00000             
Ti    core 0.8159499 0.0652165 0.3405402 2.43599999 1.00000 0.00000             
Ti    core 0.6496213 0.0655042 0.3414226 2.43599999 1.00000 0.00000             
Ti    core 0.4828528 0.0658376 0.3413982 2.43599999 1.00000 0.00000             
Ti    core 0.3152922 0.0655765 0.3413396 2.43599999 1.00000 0.00000             
Ti    core 0.1438808 0.7329508 0.3386182 2.43599999 1.00000 0.00000             
Ti    core 0.9814467 0.7327957 0.3415259 2.43599999 1.00000 0.00000             
Ti    core 0.8158224 0.7316068 0.3415326 2.43599999 1.00000 0.00000             
Ti    core 0.6494624 0.7315662 0.3414554 2.43599999 1.00000 0.00000             
Ti    core 0.4833987 0.7324137 0.3414409 2.43599999 1.00000 0.00000             
Ti    core 0.0618723 0.2320259 0.3394485 2.43599999 1.00000 0.00000             
Ti    core 0.8924944 0.2324630 0.3411846 2.43599999 1.00000 0.00000             
Ti    core 0.7384264 0.2300922 0.3408044 2.43599999 1.00000 0.00000             
Ti    core 0.9000650 0.8993125 0.3392557 2.43599999 1.00000 0.00000             
Ti    core 0.5652561 0.8987141 0.3392741 2.43599999 1.00000 0.00000             
Ti    core 0.3981600 0.8992291 0.3391245 2.43599999 1.00000 0.00000             
Ti    core 0.8988717 0.5659702 0.3389412 2.43599999 1.00000 0.00000             
Ti    core 0.5656780 0.5661948 0.3389664 2.43599999 1.00000 0.00000             
Ti    core 0.3987514 0.5684634 0.3387596 2.43599999 1.00000 0.00000             
Ti    core 0.2308618 0.2313538 0.3393122 2.43599999 1.00000 0.00000             
Ti    core 0.5691403 0.2332844 0.3393568 2.43599999 1.00000 0.00000             
Ti    core 0.3999955 0.2301678 0.3390950 2.43599999 1.00000 0.00000             
Ti    core 0.2317862 0.9004552 0.3404352 2.43599999 1.00000 0.00000             
Ti    core 0.0668331 0.8994699 0.3409938 2.43599999 1.00000 0.00000             
Ti    core 0.7324803 0.8985602 0.3392317 2.43599999 1.00000 0.00000             
Ti    core 0.2322781 0.5633055 0.3386976 2.43599999 1.00000 0.00000             
Ti    core 0.0653948 0.5669394 0.3390991 2.43599999 1.00000 0.00000             
Ti    core 0.7323153 0.5645451 0.3405366 2.43599999 1.00000 0.00000             
Ti    core 0.3155482 0.5656494 0.3115760 2.43599999 1.00000 0.00000             
Ti    core 0.1484705 0.2324738 0.3121867 2.43599999 1.00000 0.00000             
Ti    core 0.9817514 0.2323781 0.3125971 2.43599999 1.00000 0.00000             
Ti    core 0.8156629 0.2321214 0.3141147 2.43599999 1.00000 0.00000             
Ti    core 0.6493029 0.2320731 0.3123960 2.43599999 1.00000 0.00000             
Ti    core 0.4824759 0.2322985 0.3120325 2.43599999 1.00000 0.00000             
Ti    core 0.3154271 0.2324233 0.3120549 2.43599999 1.00000 0.00000             
Ti    core 0.1487958 0.8992753 0.3134757 2.43599999 1.00000 0.00000             
Ti    core 0.9825801 0.8990344 0.3125961 2.43599999 1.00000 0.00000             
Ti    core 0.8155967 0.8988007 0.3121347 2.43599999 1.00000 0.00000             
Ti    core 0.6489692 0.8987117 0.3120731 2.43599999 1.00000 0.00000             
Ti    core 0.4825169 0.8990424 0.3119655 2.43599999 1.00000 0.00000             
Ti    core 0.3155220 0.8992970 0.3124094 2.43599999 1.00000 0.00000             
Ti    core 0.1486155 0.5657897 0.3117273 2.43599999 1.00000 0.00000             
Ti    core 0.9822430 0.5658891 0.3117312 2.43599999 1.00000 0.00000             
Ti    core 0.8151422 0.5652855 0.3125955 2.43599999 1.00000 0.00000             
Ti    core 0.6492270 0.5654557 0.3123960 2.43599999 1.00000 0.00000             
Ti    core 0.4823206 0.5658034 0.3116172 2.43599999 1.00000 0.00000             
Ti    core 0.4005233 0.7323950 0.3121637 2.43599999 1.00000 0.00000             
Ti    core 0.2304913 0.3990583 0.3122011 2.43599999 1.00000 0.00000             
Ti    core 0.0651941 0.3990023 0.3128984 2.43599999 1.00000 0.00000             
Ti    core 0.9000906 0.3986172 0.3124098 2.43599999 1.00000 0.00000             
Ti    core 0.7324715 0.3986432 0.3124072 2.43599999 1.00000 0.00000             
Ti    core 0.5665365 0.3986398 0.3120433 2.43599999 1.00000 0.00000             
Ti    core 0.3988514 0.3989164 0.3122717 2.43599999 1.00000 0.00000             
Ti    core 0.2323381 0.0658175 0.3128564 2.43599999 1.00000 0.00000             
Ti    core 0.0653950 0.0658416 0.3129012 2.43599999 1.00000 0.00000             
Ti    core 0.8991023 0.0655370 0.3128191 2.43599999 1.00000 0.00000             
Ti    core 0.7320212 0.0655588 0.3127870 2.43599999 1.00000 0.00000             
Ti    core 0.5656194 0.0652845 0.3128736 2.43599999 1.00000 0.00000             
Ti    core 0.3990175 0.0659348 0.3128571 2.43599999 1.00000 0.00000             
Ti    core 0.2324827 0.7325453 0.3122483 2.43599999 1.00000 0.00000             
Ti    core 0.0637291 0.7326337 0.3121011 2.43599999 1.00000 0.00000             
Ti    core 0.8983657 0.7320714 0.3128851 2.43599999 1.00000 0.00000             
Ti    core 0.7321944 0.7319664 0.3129339 2.43599999 1.00000 0.00000             
Ti    core 0.5660127 0.7322058 0.3127905 2.43599999 1.00000 0.00000             
Ti    core 0.3155672 0.7323773 0.2845546 2.43599999 1.00000 0.00000             
Ti    core 0.1486742 0.3989734 0.2847741 2.43599999 1.00000 0.00000             
Ti    core 0.9824157 0.3989619 0.2849574 2.43599999 1.00000 0.00000             
Ti    core 0.8156745 0.3988676 0.2847756 2.43599999 1.00000 0.00000             
Ti    core 0.6491308 0.3989076 0.2846717 2.43599999 1.00000 0.00000             
Ti    core 0.4821418 0.3989311 0.2844919 2.43599999 1.00000 0.00000             
Ti    core 0.3155208 0.3990196 0.2845037 2.43599999 1.00000 0.00000             
Ti    core 0.1489505 0.0656764 0.2851311 2.43599999 1.00000 0.00000             
Ti    core 0.9823248 0.0655968 0.2852157 2.43599999 1.00000 0.00000             
Ti    core 0.8155786 0.0656545 0.2851399 2.43599999 1.00000 0.00000             
Ti    core 0.6488476 0.0656239 0.2851155 2.43599999 1.00000 0.00000             
Ti    core 0.4822137 0.0656409 0.2850679 2.43599999 1.00000 0.00000             
Ti    core 0.3155651 0.0656450 0.2851034 2.43599999 1.00000 0.00000             
Ti    core 0.1489099 0.7323982 0.2845298 2.43599999 1.00000 0.00000             
Ti    core 0.9818293 0.7322929 0.2848697 2.43599999 1.00000 0.00000             
Ti    core 0.8154016 0.7322741 0.2850506 2.43599999 1.00000 0.00000             
Ti    core 0.6490387 0.7322247 0.2849949 2.43599999 1.00000 0.00000             
Ti    core 0.4825711 0.7322614 0.2847690 2.43599999 1.00000 0.00000             
Ti    core 0.3990449 0.5656496 0.2846441 2.43599999 1.00000 0.00000             
Ti    core 0.2320045 0.2323717 0.2850546 2.43599999 1.00000 0.00000             
Ti    core 0.0650761 0.2322390 0.2852714 2.43599999 1.00000 0.00000             
Ti    core 0.8982720 0.2322732 0.2857330 2.43599999 1.00000 0.00000             
Ti    core 0.7330415 0.2322715 0.2856588 2.43599999 1.00000 0.00000             
Ti    core 0.5660273 0.2323381 0.2851351 2.43599999 1.00000 0.00000             
Ti    core 0.3989422 0.2323335 0.2849984 2.43599999 1.00000 0.00000             
Ti    core 0.2317663 0.8989841 0.2854681 2.43599999 1.00000 0.00000             
Ti    core 0.0659747 0.8988726 0.2855513 2.43599999 1.00000 0.00000             
Ti    core 0.8992654 0.8990109 0.2852393 2.43599999 1.00000 0.00000             
Ti    core 0.7323673 0.8989774 0.2850676 2.43599999 1.00000 0.00000             
Ti    core 0.5656162 0.8988839 0.2850103 2.43599999 1.00000 0.00000             
Ti    core 0.3985942 0.8989016 0.2850921 2.43599999 1.00000 0.00000             
Ti    core 0.2320937 0.5656784 0.2846549 2.43599999 1.00000 0.00000             
Ti    core 0.0653547 0.5657730 0.2847643 2.43599999 1.00000 0.00000             
Ti    core 0.8984048 0.5655036 0.2850139 2.43599999 1.00000 0.00000             
Ti    core 0.7323549 0.5654912 0.2851741 2.43599999 1.00000 0.00000             
Ti    core 0.5660909 0.5655287 0.2848946 2.43599999 1.00000 0.00000             
Ti    core 0.3155982 0.5656203 0.2576017 2.43599999 1.00000 0.00000             
Ti    core 0.1487564 0.2323041 0.2580810 2.43599999 1.00000 0.00000             
Ti    core 0.9820169 0.2322814 0.2583301 2.43599999 1.00000 0.00000             
Ti    core 0.8156105 0.2322612 0.2584902 2.43599999 1.00000 0.00000             
Ti    core 0.6491537 0.2322685 0.2582263 2.43599999 1.00000 0.00000             
Ti    core 0.4823435 0.2322867 0.2579840 2.43599999 1.00000 0.00000             
Ti    core 0.3155413 0.2323023 0.2579451 2.43599999 1.00000 0.00000             
Ti    core 0.1489047 0.8989564 0.2583199 2.43599999 1.00000 0.00000             
Ti    core 0.9824474 0.8989548 0.2582577 2.43599999 1.00000 0.00000             
Ti    core 0.8157069 0.8989695 0.2581048 2.43599999 1.00000 0.00000             
Ti    core 0.6489150 0.8989750 0.2580029 2.43599999 1.00000 0.00000             
Ti    core 0.4821340 0.8989612 0.2579911 2.43599999 1.00000 0.00000             
Ti    core 0.3153800 0.8989694 0.2581299 2.43599999 1.00000 0.00000             
Ti    core 0.1488410 0.5656327 0.2576758 2.43599999 1.00000 0.00000             
Ti    core 0.9820857 0.5656357 0.2578348 2.43599999 1.00000 0.00000             
Ti    core 0.8154690 0.5656197 0.2579992 2.43599999 1.00000 0.00000             
Ti    core 0.6490168 0.5656061 0.2579254 2.43599999 1.00000 0.00000             
Ti    core 0.4823788 0.5656193 0.2577042 2.43599999 1.00000 0.00000             
Ti    core 0.3990590 0.7323223 0.2569417 2.43599999 1.00000 0.00000             
Ti    core 0.2320350 0.3989218 0.2569190 2.43599999 1.00000 0.00000             
Ti    core 0.0654145 0.3989175 0.2570656 2.43599999 1.00000 0.00000             
Ti    core 0.8989758 0.3989262 0.2571240 2.43599999 1.00000 0.00000             
Ti    core 0.7323875 0.3988916 0.2570395 2.43599999 1.00000 0.00000             
Ti    core 0.5657477 0.3989015 0.2569091 2.43599999 1.00000 0.00000             
Ti    core 0.3989009 0.3989299 0.2568317 2.43599999 1.00000 0.00000             
Ti    core 0.2321913 0.0656461 0.2573178 2.43599999 1.00000 0.00000             
Ti    core 0.0655336 0.0656622 0.2573749 2.43599999 1.00000 0.00000             
Ti    core 0.8989587 0.0656007 0.2573886 2.43599999 1.00000 0.00000             
Ti    core 0.7322946 0.0656212 0.2573407 2.43599999 1.00000 0.00000             
Ti    core 0.5656097 0.0656400 0.2572791 2.43599999 1.00000 0.00000             
Ti    core 0.3988714 0.0656216 0.2572700 2.43599999 1.00000 0.00000             
Ti    core 0.2322212 0.7323143 0.2568958 2.43599999 1.00000 0.00000             
Ti    core 0.0653434 0.7322992 0.2570061 2.43599999 1.00000 0.00000             
Ti    core 0.8987512 0.7323266 0.2571505 2.43599999 1.00000 0.00000             
Ti    core 0.7322708 0.7323261 0.2571874 2.43599999 1.00000 0.00000             
Ti    core 0.5657486 0.7323069 0.2570767 2.43599999 1.00000 0.00000             
Ti    core 0.3990218 0.5656151 0.2304908 2.43599999 1.00000 0.00000             
Ti    core 0.3155604 0.7324596 0.2284082 2.43599999 1.00000 0.00000             
Ti    core 0.2320725 0.2322110 0.2308279 2.43599999 1.00000 0.00000             
Ti    core 0.1487314 0.3987858 0.2284725 2.43599999 1.00000 0.00000             
Ti    core 0.0653119 0.2322049 0.2310033 2.43599999 1.00000 0.00000             
Ti    core 0.9821201 0.3987820 0.2285849 2.43599999 1.00000 0.00000             
Ti    core 0.8987956 0.2322239 0.2311793 2.43599999 1.00000 0.00000             
Ti    core 0.8156230 0.3987778 0.2285746 2.43599999 1.00000 0.00000             
Ti    core 0.7324598 0.2322255 0.2311251 2.43599999 1.00000 0.00000             
Ti    core 0.6490786 0.3987787 0.2284753 2.43599999 1.00000 0.00000             
Ti    core 0.5658255 0.2322146 0.2309012 2.43599999 1.00000 0.00000             
Ti    core 0.4823613 0.3987915 0.2283633 2.43599999 1.00000 0.00000             
Ti    core 0.3989587 0.2322177 0.2307799 2.43599999 1.00000 0.00000             
Ti    core 0.3155163 0.3987982 0.2283587 2.43599999 1.00000 0.00000             
Ti    core 0.2320813 0.8990332 0.2309976 2.43599999 1.00000 0.00000             
Ti    core 0.1488001 0.0656351 0.2288223 2.43599999 1.00000 0.00000             
Ti    core 0.0656019 0.8990302 0.2310677 2.43599999 1.00000 0.00000             
Ti    core 0.9822066 0.0656469 0.2288643 2.43599999 1.00000 0.00000             
Ti    core 0.8990531 0.8990573 0.2309911 2.43599999 1.00000 0.00000             
Ti    core 0.8156487 0.0656581 0.2288397 2.43599999 1.00000 0.00000             
Ti    core 0.7323617 0.8990475 0.2308820 2.43599999 1.00000 0.00000             
Ti    core 0.6490195 0.0656655 0.2287834 2.43599999 1.00000 0.00000             
Ti    core 0.5655848 0.8990356 0.2308229 2.43599999 1.00000 0.00000             
Ti    core 0.4822744 0.0656472 0.2287441 2.43599999 1.00000 0.00000             
Ti    core 0.3987743 0.8990455 0.2308622 2.43599999 1.00000 0.00000             
Ti    core 0.3154971 0.0656245 0.2287675 2.43599999 1.00000 0.00000             
Ti    core 0.2321540 0.5656279 0.2304825 2.43599999 1.00000 0.00000             
Ti    core 0.1487914 0.7324622 0.2284381 2.43599999 1.00000 0.00000             
Ti    core 0.0653771 0.5656392 0.2305994 2.43599999 1.00000 0.00000             
Ti    core 0.9821308 0.7324498 0.2285615 2.43599999 1.00000 0.00000             
Ti    core 0.8987564 0.5656021 0.2307477 2.43599999 1.00000 0.00000             
Ti    core 0.8155805 0.7324354 0.2286384 2.43599999 1.00000 0.00000             
Ti    core 0.7323147 0.5656010 0.2307793 2.43599999 1.00000 0.00000             
Ti    core 0.6490210 0.7324232 0.2286005 2.43599999 1.00000 0.00000             
Ti    core 0.5657895 0.5656218 0.2306398 2.43599999 1.00000 0.00000             
Ti    core 0.4823402 0.7324361 0.2284884 2.43599999 1.00000 0.00000             
O2    core 0.3947796 0.7268524 0.3494631 -1.2179999 1.00000 0.00000             
O2    core 0.2364013 0.4021854 0.3495372 -1.2179999 1.00000 0.00000             
O2    core 0.0646841 0.4023678 0.3504989 -1.2179999 1.00000 0.00000             
O3    core 0.8925518 0.4036526 0.3495318 
H22    core 0.8925518 0.4036526 0.3595318
O2    core 0.8133866 0.2352513 0.3521735 -1.2179999 1.00000 0.00000             
O2    core 0.5645674 0.4007553 0.3495100 -1.2179999 1.00000 0.00000             
O2    core 0.3984632 0.4000467 0.3504216
#H22   core 0.3956147 0.3993442 0.3588332 0.12000000 1.00000 0.00000             
O2    core 0.2316059 0.0687522 0.3498983 -1.2179999 1.00000 0.00000             
O2    core 0.0661868 0.0667587 0.3499983 -1.2179999 1.00000 0.00000             
O2    core 0.8971077 0.0653490 0.3498119 -1.2179999 1.00000 0.00000             
O2    core 0.7337912 0.0656591 0.3497124 -1.2179999 1.00000 0.00000             
O2    core 0.5656846 0.0645029 0.3501542 -1.2179999 1.00000 0.00000             
O2    core 0.3990941 0.0709738 0.3500281 -1.2179999 1.00000 0.00000             
O3    core 0.2315575 0.7316360 0.3498326 -0.3380000 1.00000 0.00000             
H22   core 0.2251812 0.7439364 0.3579382 0.12000000 1.00000 0.00000             
O2    core 0.0715959 0.7272088 0.3492092 -1.2179999 1.00000 0.00000             
O2    core 0.8993016 0.7302302 0.3503925 -1.2179999 1.00000 0.00000             
O2    core 0.7321858 0.7320147 0.3502424 -1.2179999 1.00000 0.00000             
O2    core 0.5652482 0.7314377 0.3502703 -1.2179999 1.00000 0.00000             
O2    core 0.1476718 0.1733313 0.3405800 -1.2179999 1.00000 0.00000             
O2    core 0.9805732 0.1722498 0.3412581 -1.2179999 1.00000 0.00000             
O2    core 0.8154015 0.1631933 0.3366222 -1.2179999 1.00000 0.00000             
O2    core 0.6487967 0.1723415 0.3411680 -1.2179999 1.00000 0.00000             
O2    core 0.4846513 0.1744949 0.3407778 -1.2179999 1.00000 0.00000             
O2    core 0.3155799 0.1745145 0.3407371 -1.2179999 1.00000 0.00000             
O2    core 0.1524440 0.8302764 0.3387166 -1.2179999 1.00000 0.00000             
O2    core 0.9809932 0.8353150 0.3406797 -1.2179999 1.00000 0.00000             
O2    core 0.8158220 0.8373697 0.3408251 -1.2179999 1.00000 0.00000             
O2    core 0.6478558 0.8372708 0.3407091 -1.2179999 1.00000 0.00000             
O2    core 0.4807486 0.8369535 0.3409133 -1.2179999 1.00000 0.00000             
O2    core 0.3181951 0.8329953 0.3401263 -1.2179999 1.00000 0.00000             
O2    core 0.9835347 0.5061156 0.3408226 -1.2179999 1.00000 0.00000             
O2    core 0.4779004 0.5020834 0.3407406 -1.2179999 1.00000 0.00000             
O2    core 0.3187070 0.5030559 0.3404980 -1.2179999 1.00000 0.00000             
O2    core 0.1495978 0.5058842 0.3407711 -1.2179999 1.00000 0.00000             
O2    core 0.8190906 0.5024493 0.3385484 -1.2179999 1.00000 0.00000             
O2    core 0.6413354 0.5008628 0.3394576 -1.2179999 1.00000 0.00000             
O2    core 0.3128254 0.6268874 0.3405139 -1.2179999 1.00000 0.00000             
O2    core 0.1497737 0.2947227 0.3411449 -1.2179999 1.00000 0.00000             
O2    core 0.9818195 0.2952713 0.3416168 -1.2179999 1.00000 0.00000             
O2    core 0.8129377 0.3042630 0.3366405 -1.2179999 1.00000 0.00000             
O2    core 0.6496568 0.2967600 0.3415121 -1.2179999 1.00000 0.00000             
O2    core 0.4797039 0.2974899 0.3410517 -1.2179999 1.00000 0.00000             
O2    core 0.3184553 0.2970731 0.3408263 -1.2179999 1.00000 0.00000             
O2    core 0.9811267 0.9600463 0.3406692 -1.2179999 1.00000 0.00000             
O2    core 0.4815689 0.9592193 0.3407791 -1.2179999 1.00000 0.00000             
O2    core 0.3190304 0.9610730 0.3404379 -1.2179999 1.00000 0.00000             
O2    core 0.1530078 0.6280996 0.3401902 -1.2179999 1.00000 0.00000             
O2    core 0.9830696 0.6268243 0.3406606 -1.2179999 1.00000 0.00000             
O2    core 0.8169817 0.6265344 0.3405989 -1.2179999 1.00000 0.00000             
O2    core 0.6465846 0.6262515 0.3406235 -1.2179999 1.00000 0.00000             
O2    core 0.4817479 0.6252147 0.3407163 -1.2179999 1.00000 0.00000             
O2    core 0.1503373 0.9636961 0.3389652 -1.2179999 1.00000 0.00000             
O2    core 0.8151450 0.9584616 0.3404012 -1.2179999 1.00000 0.00000             
O2    core 0.6479130 0.9583066 0.3408429 -1.2179999 1.00000 0.00000             
O2    core 0.4021788 0.7296034 0.3288639 -1.2179999 1.00000 0.00000             
O2    core 0.2296284 0.4003960 0.3289367 -1.2179999 1.00000 0.00000             
O2    core 0.0669628 0.3992692 0.3296543 -1.2179999 1.00000 0.00000             
O2    core 0.9054078 0.4027635 0.3288155 -1.2179999 1.00000 0.00000             
O2    core 0.7285785 0.4023001 0.3292404 -1.2179999 1.00000 0.00000             
O2    core 0.5658834 0.3961981 0.3287277 -1.2179999 1.00000 0.00000             
O2    core 0.3990965 0.3993992 0.3304671 -1.2179999 1.00000 0.00000             
O2    core 0.2346665 0.0695478 0.3293148 -1.2179999 1.00000 0.00000             
O2    core 0.0652705 0.0693990 0.3293164 -1.2179999 1.00000 0.00000             
O2    core 0.9015554 0.0598740 0.3291065 -1.2179999 1.00000 0.00000             
O2    core 0.7278471 0.0599436 0.3291142 -1.2179999 1.00000 0.00000             
O2    core 0.5643146 0.0659406 0.3294872 -1.2179999 1.00000 0.00000             
O2    core 0.3998538 0.0676625 0.3294706 -1.2179999 1.00000 0.00000             
O2    core 0.2341852 0.7282513 0.3299567 -1.2179999 1.00000 0.00000             
O2    core 0.0613494 0.7284851 0.3285732 -1.2179999 1.00000 0.00000             
O2    core 0.8984031 0.7314314 0.3295151 -1.2179999 1.00000 0.00000             
O2    core 0.7314314 0.7326264 0.3295315 -1.2179999 1.00000 0.00000             
O2    core 0.5643697 0.7315796 0.3295101 -1.2179999 1.00000 0.00000             
O2    core 0.3980200 0.5661962 0.3226929 -1.2179999 1.00000 0.00000             
O2    core 0.2333720 0.2346237 0.3230861 -1.2179999 1.00000 0.00000             
O2    core 0.0672229 0.2341757 0.3231952 -1.2179999 1.00000 0.00000             
O2    core 0.9042691 0.2340386 0.3237491 -1.2179999 1.00000 0.00000             
O2    core 0.7255232 0.2328623 0.3236363 -1.2179999 1.00000 0.00000             
O2    core 0.5635618 0.2350960 0.3231732 -1.2179999 1.00000 0.00000             
O2    core 0.3990199 0.2337433 0.3229743 -1.2179999 1.00000 0.00000             
O2    core 0.2361981 0.8983393 0.3234751 -1.2179999 1.00000 0.00000             
O2    core 0.0635404 0.8975783 0.3236695 -1.2179999 1.00000 0.00000             
O2    core 0.8977027 0.8977212 0.3229774 -1.2179999 1.00000 0.00000             
O2    core 0.7313007 0.8977751 0.3229359 -1.2179999 1.00000 0.00000             
O2    core 0.5647930 0.8982828 0.3229864 -1.2179999 1.00000 0.00000             
O2    core 0.4005527 0.8978532 0.3229299 -1.2179999 1.00000 0.00000             
O2    core 0.2335356 0.5642326 0.3226470 -1.2179999 1.00000 0.00000             
O2    core 0.0671853 0.5661923 0.3228231 -1.2179999 1.00000 0.00000             
O2    core 0.9018671 0.5673755 0.3227210 -1.2179999 1.00000 0.00000             
O2    core 0.7305648 0.5662581 0.3234016 -1.2179999 1.00000 0.00000             
O2    core 0.5618348 0.5655188 0.3228042 -1.2179999 1.00000 0.00000             
O2    core 0.3156208 0.6668532 0.3124793 -1.2179999 1.00000 0.00000             
O2    core 0.3162808 0.4637789 0.3127428 -1.2179999 1.00000 0.00000             
O2    core 0.1492358 0.3340613 0.3123157 -1.2179999 1.00000 0.00000             
O2    core 0.1499503 0.1319844 0.3124725 -1.2179999 1.00000 0.00000             
O2    core 0.9836871 0.3341871 0.3122333 -1.2179999 1.00000 0.00000             
O2    core 0.9826465 0.1312937 0.3123978 -1.2179999 1.00000 0.00000             
O2    core 0.8155646 0.3351169 0.3126003 -1.2179999 1.00000 0.00000             
O2    core 0.8151805 0.1302704 0.3126068 -1.2179999 1.00000 0.00000             
O2    core 0.6484423 0.3341554 0.3121528 -1.2179999 1.00000 0.00000             
O2    core 0.6473494 0.1310307 0.3124904 -1.2179999 1.00000 0.00000             
O2    core 0.4807771 0.3348094 0.3125909 -1.2179999 1.00000 0.00000             
O2    core 0.4820406 0.1318593 0.3125352 -1.2179999 1.00000 0.00000             
O2    core 0.3160810 0.3353028 0.3129234 -1.2179999 1.00000 0.00000             
O2    core 0.3163020 0.1322094 0.3124386 -1.2179999 1.00000 0.00000             
O2    core 0.1496235 0.0005640 0.3127826 -1.2179999 1.00000 0.00000             
O2    core 0.1497266 0.7956038 0.3130375 -1.2179999 1.00000 0.00000             
O2    core 0.9833689 0.9997319 0.3122580 -1.2179999 1.00000 0.00000             
O2    core 0.9815972 0.7972852 0.3122097 -1.2179999 1.00000 0.00000             
O2    core 0.8150602 0.9995697 0.3123133 -1.2179999 1.00000 0.00000             
O2    core 0.8150484 0.7971822 0.3124591 -1.2179999 1.00000 0.00000             
O2    core 0.6474623 0.9993544 0.3122505 -1.2179999 1.00000 0.00000             
O2    core 0.6483076 0.7972862 0.3124930 -1.2179999 1.00000 0.00000             
O2    core 0.4817735 0.0000919 0.3125184 -1.2179999 1.00000 0.00000             
O2    core 0.4825634 0.7973924 0.3122575 -1.2179999 1.00000 0.00000             
O2    core 0.3162726 0.0005189 0.3125734 -1.2179999 1.00000 0.00000             
O2    core 0.3159787 0.7958858 0.3127923 -1.2179999 1.00000 0.00000             
O2    core 0.1502760 0.6671363 0.3125764 -1.2179999 1.00000 0.00000             
O2    core 0.1491276 0.4651587 0.3122242 -1.2179999 1.00000 0.00000             
O2    core 0.9821172 0.6664829 0.3118642 -1.2179999 1.00000 0.00000             
O2    core 0.9839622 0.4653627 0.3120323 -1.2179999 1.00000 0.00000             
O2    core 0.8150568 0.6665065 0.3125950 -1.2179999 1.00000 0.00000             
O2    core 0.8155166 0.4640538 0.3125632 -1.2179999 1.00000 0.00000             
O2    core 0.6479839 0.6664438 0.3125765 -1.2179999 1.00000 0.00000             
O2    core 0.6480009 0.4643586 0.3121696 -1.2179999 1.00000 0.00000             
O2    core 0.4821071 0.6662119 0.3120676 -1.2179999 1.00000 0.00000             
O2    core 0.4809235 0.4636886 0.3126870 -1.2179999 1.00000 0.00000             
O2    core 0.3986821 0.5646846 0.3013037 -1.2179999 1.00000 0.00000             
O2    core 0.2325284 0.2339319 0.3016649 -1.2179999 1.00000 0.00000             
O2    core 0.0653295 0.2323899 0.3017844 -1.2179999 1.00000 0.00000             
O2    core 0.8972838 0.2328767 0.3022962 -1.2179999 1.00000 0.00000             
O2    core 0.7336821 0.2326229 0.3022288 -1.2179999 1.00000 0.00000             
O2    core 0.5655527 0.2334243 0.3017264 -1.2179999 1.00000 0.00000             
O2    core 0.3987793 0.2341142 0.3016200 -1.2179999 1.00000 0.00000             
O2    core 0.2313718 0.8974639 0.3021202 -1.2179999 1.00000 0.00000             
O2    core 0.0675405 0.8974542 0.3021711 -1.2179999 1.00000 0.00000             
O2    core 0.8995284 0.8986983 0.3017068 -1.2179999 1.00000 0.00000             
O2    core 0.7320799 0.8983488 0.3015688 -1.2179999 1.00000 0.00000             
O2    core 0.5653747 0.8984938 0.3015448 -1.2179999 1.00000 0.00000             
O2    core 0.3980754 0.8979723 0.3016619 -1.2179999 1.00000 0.00000             
O2    core 0.2324793 0.5656978 0.3013093 -1.2179999 1.00000 0.00000             
O2    core 0.0662512 0.5668756 0.3013264 -1.2179999 1.00000 0.00000             
O2    core 0.8974852 0.5649155 0.3015179 -1.2179999 1.00000 0.00000             
O2    core 0.7322110 0.5651777 0.3018039 -1.2179999 1.00000 0.00000             
O2    core 0.5660381 0.5644990 0.3014868 -1.2179999 1.00000 0.00000             
O2    core 0.3982606 0.7318418 0.2954960 -1.2179999 1.00000 0.00000             
O2    core 0.2334144 0.3995456 0.2955430 -1.2179999 1.00000 0.00000             
O2    core 0.0666381 0.3995160 0.2956977 -1.2179999 1.00000 0.00000             
O2    core 0.8987883 0.3995705 0.2956047 -1.2179999 1.00000 0.00000             
O2    core 0.7318299 0.3995802 0.2955515 -1.2179999 1.00000 0.00000             
O2    core 0.5643163 0.3993068 0.2954304 -1.2179999 1.00000 0.00000             
O2    core 0.3986003 0.3994537 0.2955314 -1.2179999 1.00000 0.00000             
O2    core 0.2326950 0.0658148 0.2958975 -1.2179999 1.00000 0.00000             
O2    core 0.0663790 0.0658216 0.2958896 -1.2179999 1.00000 0.00000             
O2    core 0.8988780 0.0654084 0.2958412 -1.2179999 1.00000 0.00000             
O2    core 0.7316791 0.0654433 0.2958258 -1.2179999 1.00000 0.00000             
O2    core 0.5648714 0.0656467 0.2958471 -1.2179999 1.00000 0.00000             
O2    core 0.3989833 0.0659707 0.2958729 -1.2179999 1.00000 0.00000             
O2    core 0.2325213 0.7318726 0.2955277 -1.2179999 1.00000 0.00000             
O2    core 0.0668676 0.7320315 0.2954796 -1.2179999 1.00000 0.00000             
O2    core 0.8988181 0.7319094 0.2957434 -1.2179999 1.00000 0.00000             
O2    core 0.7317611 0.7317907 0.2958472 -1.2179999 1.00000 0.00000             
O2    core 0.5650725 0.7319297 0.2957216 -1.2179999 1.00000 0.00000             
O2    core 0.3156421 0.5008885 0.2848021 -1.2179999 1.00000 0.00000             
O2    core 0.3156962 0.6302626 0.2848332 -1.2179999 1.00000 0.00000             
O2    core 0.1492001 0.1678318 0.2851604 -1.2179999 1.00000 0.00000             
O2    core 0.1490881 0.2974342 0.2850401 -1.2179999 1.00000 0.00000             
O2    core 0.9819911 0.1676544 0.2853044 -1.2179999 1.00000 0.00000             
O2    core 0.9821209 0.2973177 0.2852406 -1.2179999 1.00000 0.00000             
O2    core 0.8154929 0.1672338 0.2851282 -1.2179999 1.00000 0.00000             
O2    core 0.8154923 0.2976560 0.2850519 -1.2179999 1.00000 0.00000             
O2    core 0.6488810 0.1677654 0.2853157 -1.2179999 1.00000 0.00000             
O2    core 0.6489189 0.2973321 0.2851725 -1.2179999 1.00000 0.00000             
O2    core 0.4821317 0.1679093 0.2851673 -1.2179999 1.00000 0.00000             
O2    core 0.4820799 0.2974546 0.2849790 -1.2179999 1.00000 0.00000             
O2    core 0.3156689 0.1679208 0.2851475 -1.2179999 1.00000 0.00000             
O2    core 0.3156770 0.2975714 0.2849657 -1.2179999 1.00000 0.00000             
O2    core 0.1493076 0.8335647 0.2850147 -1.2179999 1.00000 0.00000             
O2    core 0.1492340 0.9637979 0.2852203 -1.2179999 1.00000 0.00000             
O2    core 0.9827827 0.8338407 0.2851294 -1.2179999 1.00000 0.00000             
O2    core 0.9829862 0.9635137 0.2852424 -1.2179999 1.00000 0.00000             
O2    core 0.8156163 0.8339916 0.2850618 -1.2179999 1.00000 0.00000             
O2    core 0.8155777 0.9635710 0.2850712 -1.2179999 1.00000 0.00000             
O2    core 0.6486678 0.8339184 0.2849943 -1.2179999 1.00000 0.00000             
O2    core 0.6485664 0.9636075 0.2850053 -1.2179999 1.00000 0.00000             
O2    core 0.4818960 0.8338967 0.2849950 -1.2179999 1.00000 0.00000             
O2    core 0.4818624 0.9635460 0.2851167 -1.2179999 1.00000 0.00000             
O2    core 0.3153002 0.8338046 0.2850885 -1.2179999 1.00000 0.00000             