opti fix molmec phon pot prop comp conv  
cell
  17.724000  19.461000 114.868482  90.000000  90.000000  90.000000
fractional  1   
Ti    core 0.3200000 0.7333332 0.3392681 2.43599999 1.00000 0.00000             
Ti    core 0.1489394 0.3990595 0.3414571 2.43599999 1.00000 0.00000             
Ti    core 0.9821737 0.3995780 0.3414560 2.43599999 1.00000 0.00000             
Ti    core 0.8152753 0.3996707 0.3415499 2.43599999 1.00000 0.00000             
Ti    core 0.6504402 0.3992502 0.3400406 2.43599999 1.00000 0.00000             
Ti    core 0.4813482 0.3998294 0.3402767 2.43599999 1.00000 0.00000             
Ti    core 0.3162519 0.3992728 0.3415303 2.43599999 1.00000 0.00000             
Ti    core 0.1488215 0.0656579 0.3409211 2.43599999 1.00000 0.00000             
Ti    core 0.9823830 0.0656823 0.3413985 2.43599999 1.00000 0.00000             
Ti    core 0.8157350 0.0660214 0.3414152 2.43599999 1.00000 0.00000             
Ti    core 0.6490813 0.0655448 0.3413408 2.43599999 1.00000 0.00000             
Ti    core 0.4820206 0.0657198 0.3413507 2.43599999 1.00000 0.00000             
Ti    core 0.3156084 0.0656455 0.3413488 2.43599999 1.00000 0.00000             
Ti    core 0.1439862 0.7331740 0.3387517 2.43599999 1.00000 0.00000             
Ti    core 0.9814881 0.7329916 0.3415323 2.43599999 1.00000 0.00000             
Ti    core 0.8156309 0.7325238 0.3415176 2.43599999 1.00000 0.00000             
Ti    core 0.6491960 0.7318132 0.3415252 2.43599999 1.00000 0.00000             
Ti    core 0.4830658 0.7316537 0.3415926 2.43599999 1.00000 0.00000             
Ti    core 0.0656042 0.2320818 0.3392490 2.43599999 1.00000 0.00000             
Ti    core 0.8986937 0.2326776 0.3392840 2.43599999 1.00000 0.00000             
Ti    core 0.7319247 0.2332230 0.3392230 2.43599999 1.00000 0.00000             
Ti    core 0.8998402 0.8991503 0.3392704 2.43599999 1.00000 0.00000             
Ti    core 0.5652560 0.8981293 0.3392564 2.43599999 1.00000 0.00000             
Ti    core 0.3980533 0.8992101 0.3392362 2.43599999 1.00000 0.00000             
Ti    core 0.8987128 0.5661936 0.3391730 2.43599999 1.00000 0.00000             
Ti    core 0.5656637 0.5644692 0.3407493 2.43599999 1.00000 0.00000             
Ti    core 0.3991226 0.5669113 0.3390372 2.43599999 1.00000 0.00000             
Ti    core 0.2326561 0.2317530 0.3392243 2.43599999 1.00000 0.00000             
Ti    core 0.5657031 0.2305574 0.3395362 2.43599999 1.00000 0.00000             
Ti    core 0.3994543 0.2333262 0.3392621 2.43599999 1.00000 0.00000             
Ti    core 0.2313239 0.9007044 0.3405584 2.43599999 1.00000 0.00000             
Ti    core 0.0664098 0.8996132 0.3408385 2.43599999 1.00000 0.00000             
Ti    core 0.7325706 0.8990156 0.3393066 2.43599999 1.00000 0.00000             
Ti    core 0.2325421 0.5637673 0.3387902 2.43599999 1.00000 0.00000             
Ti    core 0.0656008 0.5671110 0.3391738 2.43599999 1.00000 0.00000             
Ti    core 0.7321135 0.5663400 0.3390106 2.43599999 1.00000 0.00000             
Ti    core 0.3156514 0.5659402 0.3117327 2.43599999 1.00000 0.00000             
Ti    core 0.1489803 0.2326173 0.3121004 2.43599999 1.00000 0.00000             
Ti    core 0.9822178 0.2326776 0.3121012 2.43599999 1.00000 0.00000             
Ti    core 0.8156740 0.2325374 0.3120402 2.43599999 1.00000 0.00000             
Ti    core 0.6488927 0.2323427 0.3121724 2.43599999 1.00000 0.00000             
Ti    core 0.4823932 0.2323493 0.3121789 2.43599999 1.00000 0.00000             
Ti    core 0.3156375 0.2325626 0.3120241 2.43599999 1.00000 0.00000             
Ti    core 0.1487527 0.8994903 0.3134739 2.43599999 1.00000 0.00000             
Ti    core 0.9824226 0.8993669 0.3125810 2.43599999 1.00000 0.00000             
Ti    core 0.8155295 0.8991695 0.3121091 2.43599999 1.00000 0.00000             
Ti    core 0.6489816 0.8989616 0.3121305 2.43599999 1.00000 0.00000             
Ti    core 0.4824523 0.8990452 0.3120254 2.43599999 1.00000 0.00000             
Ti    core 0.3154392 0.8993332 0.3125228 2.43599999 1.00000 0.00000             
Ti    core 0.1487373 0.5658821 0.3118704 2.43599999 1.00000 0.00000             
Ti    core 0.9821506 0.5658478 0.3119695 2.43599999 1.00000 0.00000             
Ti    core 0.8157548 0.5660279 0.3119025 2.43599999 1.00000 0.00000             
Ti    core 0.6485768 0.5655709 0.3126141 2.43599999 1.00000 0.00000             
Ti    core 0.4827994 0.5655397 0.3125693 2.43599999 1.00000 0.00000             
Ti    core 0.4006613 0.7321687 0.3122731 2.43599999 1.00000 0.00000             
Ti    core 0.2321265 0.3992264 0.3128569 2.43599999 1.00000 0.00000             
Ti    core 0.0656396 0.3990615 0.3128710 2.43599999 1.00000 0.00000             
Ti    core 0.8991586 0.3992811 0.3128825 2.43599999 1.00000 0.00000             
Ti    core 0.7331291 0.3988668 0.3125668 2.43599999 1.00000 0.00000             
Ti    core 0.5655516 0.3988923 0.3126036 2.43599999 1.00000 0.00000             
Ti    core 0.3982577 0.3986860 0.3126123 2.43599999 1.00000 0.00000             
Ti    core 0.2324256 0.0660318 0.3128270 2.43599999 1.00000 0.00000             
Ti    core 0.0654626 0.0660725 0.3128479 2.43599999 1.00000 0.00000             
Ti    core 0.8988965 0.0659348 0.3128922 2.43599999 1.00000 0.00000             
Ti    core 0.7322787 0.0656683 0.3128719 2.43599999 1.00000 0.00000             
Ti    core 0.5656060 0.0656722 0.3128554 2.43599999 1.00000 0.00000             
Ti    core 0.3989824 0.0658342 0.3128568 2.43599999 1.00000 0.00000             
Ti    core 0.2323536 0.7327856 0.3123271 2.43599999 1.00000 0.00000             
Ti    core 0.0636600 0.7326750 0.3121828 2.43599999 1.00000 0.00000             
Ti    core 0.8984044 0.7326463 0.3128773 2.43599999 1.00000 0.00000             
Ti    core 0.7322639 0.7322276 0.3129170 2.43599999 1.00000 0.00000             
Ti    core 0.5661260 0.7322290 0.3129564 2.43599999 1.00000 0.00000             
Ti    core 0.3156306 0.7324942 0.2846963 2.43599999 1.00000 0.00000             
Ti    core 0.1488892 0.3992100 0.2849991 2.43599999 1.00000 0.00000             
Ti    core 0.9823157 0.3991990 0.2850100 2.43599999 1.00000 0.00000             
Ti    core 0.8157335 0.3991602 0.2849624 2.43599999 1.00000 0.00000             
Ti    core 0.6489142 0.3991263 0.2848417 2.43599999 1.00000 0.00000             
Ti    core 0.4822799 0.3991222 0.2848494 2.43599999 1.00000 0.00000             
Ti    core 0.3155055 0.3991698 0.2849624 2.43599999 1.00000 0.00000             
Ti    core 0.1489168 0.0658340 0.2850900 2.43599999 1.00000 0.00000             
Ti    core 0.9822605 0.0658306 0.2851176 2.43599999 1.00000 0.00000             
Ti    core 0.8155778 0.0658082 0.2850865 2.43599999 1.00000 0.00000             
Ti    core 0.6489374 0.0658061 0.2850460 2.43599999 1.00000 0.00000             
Ti    core 0.4822926 0.0657643 0.2850642 2.43599999 1.00000 0.00000             
Ti    core 0.3156074 0.0657860 0.2851005 2.43599999 1.00000 0.00000             
Ti    core 0.1488895 0.7325938 0.2846258 2.43599999 1.00000 0.00000             
Ti    core 0.9819124 0.7325751 0.2848674 2.43599999 1.00000 0.00000             
Ti    core 0.8154434 0.7324765 0.2850742 2.43599999 1.00000 0.00000             
Ti    core 0.6489612 0.7324257 0.2850643 2.43599999 1.00000 0.00000             
Ti    core 0.4826449 0.7324551 0.2849017 2.43599999 1.00000 0.00000             
Ti    core 0.3994311 0.5657808 0.2850257 2.43599999 1.00000 0.00000             
Ti    core 0.2322428 0.2324566 0.2850266 2.43599999 1.00000 0.00000             
Ti    core 0.0656049 0.2325221 0.2850429 2.43599999 1.00000 0.00000             
Ti    core 0.8989690 0.2324863 0.2850335 2.43599999 1.00000 0.00000             
Ti    core 0.7322207 0.2325106 0.2850405 2.43599999 1.00000 0.00000             
Ti    core 0.5655993 0.2324706 0.2850669 2.43599999 1.00000 0.00000             
Ti    core 0.3990009 0.2324973 0.2850427 2.43599999 1.00000 0.00000             
Ti    core 0.2318043 0.8991436 0.2855188 2.43599999 1.00000 0.00000             
Ti    core 0.0659637 0.8991902 0.2855438 2.43599999 1.00000 0.00000             
Ti    core 0.8992534 0.8991796 0.2852246 2.43599999 1.00000 0.00000             
Ti    core 0.7323299 0.8991511 0.2850785 2.43599999 1.00000 0.00000             
Ti    core 0.5656187 0.8991148 0.2850523 2.43599999 1.00000 0.00000             
Ti    core 0.3985829 0.8990910 0.2851636 2.43599999 1.00000 0.00000             
Ti    core 0.2322714 0.5658334 0.2848371 2.43599999 1.00000 0.00000             
Ti    core 0.0654748 0.5659400 0.2848862 2.43599999 1.00000 0.00000             
Ti    core 0.8988196 0.5657688 0.2849410 2.43599999 1.00000 0.00000             
Ti    core 0.7318854 0.5657162 0.2851059 2.43599999 1.00000 0.00000             
Ti    core 0.5656771 0.5656925 0.2852666 2.43599999 1.00000 0.00000             
Ti    core 0.3157229 0.5658343 0.2578689 2.43599999 1.00000 0.00000             
Ti    core 0.1489286 0.2325131 0.2579901 2.43599999 1.00000 0.00000             
Ti    core 0.9822576 0.2325053 0.2579914 2.43599999 1.00000 0.00000             
Ti    core 0.8155808 0.2324917 0.2579846 2.43599999 1.00000 0.00000             
Ti    core 0.6489076 0.2324745 0.2579894 2.43599999 1.00000 0.00000             
Ti    core 0.4822694 0.2324783 0.2579910 2.43599999 1.00000 0.00000             
Ti    core 0.3156122 0.2324988 0.2579820 2.43599999 1.00000 0.00000             
Ti    core 0.1489106 0.8991606 0.2583408 2.43599999 1.00000 0.00000             
Ti    core 0.9824272 0.8991662 0.2582418 2.43599999 1.00000 0.00000             
Ti    core 0.8157035 0.8991760 0.2580861 2.43599999 1.00000 0.00000             
Ti    core 0.6489405 0.8991776 0.2580181 2.43599999 1.00000 0.00000             
Ti    core 0.4821543 0.8991628 0.2580423 2.43599999 1.00000 0.00000             
Ti    core 0.3153945 0.8991579 0.2581950 2.43599999 1.00000 0.00000             
Ti    core 0.1489201 0.5658371 0.2578269 2.43599999 1.00000 0.00000             
Ti    core 0.9821832 0.5658391 0.2578767 2.43599999 1.00000 0.00000             
Ti    core 0.8154571 0.5658184 0.2579608 2.43599999 1.00000 0.00000             
Ti    core 0.6488406 0.5658190 0.2580731 2.43599999 1.00000 0.00000             
Ti    core 0.4823852 0.5658328 0.2580338 2.43599999 1.00000 0.00000             
Ti    core 0.3990813 0.7325200 0.2570759 2.43599999 1.00000 0.00000             
Ti    core 0.2322310 0.3991682 0.2571566 2.43599999 1.00000 0.00000             
Ti    core 0.0655812 0.3991619 0.2571760 2.43599999 1.00000 0.00000             
Ti    core 0.8989493 0.3991694 0.2571669 2.43599999 1.00000 0.00000             
Ti    core 0.7323086 0.3991496 0.2571327 2.43599999 1.00000 0.00000             
Ti    core 0.5655897 0.3991444 0.2571076 2.43599999 1.00000 0.00000             
Ti    core 0.3988779 0.3991596 0.2571263 2.43599999 1.00000 0.00000             
Ti    core 0.2322427 0.0658358 0.2572951 2.43599999 1.00000 0.00000             
Ti    core 0.0655963 0.0658238 0.2573045 2.43599999 1.00000 0.00000             
Ti    core 0.8989639 0.0658098 0.2572831 2.43599999 1.00000 0.00000             
Ti    core 0.7322867 0.0658124 0.2572502 2.43599999 1.00000 0.00000             
Ti    core 0.5655741 0.0657960 0.2572413 2.43599999 1.00000 0.00000             
Ti    core 0.3988832 0.0657962 0.2572641 2.43599999 1.00000 0.00000             
Ti    core 0.2322784 0.7324973 0.2570047 2.43599999 1.00000 0.00000             
Ti    core 0.0654161 0.7325114 0.2570584 2.43599999 1.00000 0.00000             
Ti    core 0.8987624 0.7325173 0.2571676 2.43599999 1.00000 0.00000             
Ti    core 0.7322416 0.7325059 0.2572313 2.43599999 1.00000 0.00000             
Ti    core 0.5657178 0.7325307 0.2571815 2.43599999 1.00000 0.00000             
Ti    core 0.3990602 0.5658709 0.2307727 2.43599999 1.00000 0.00000             
Ti    core 0.3156050 0.7326074 0.2285302 2.43599999 1.00000 0.00000             
Ti    core 0.2322478 0.2324482 0.2308172 2.43599999 1.00000 0.00000             
Ti    core 0.1489110 0.3991502 0.2286247 2.43599999 1.00000 0.00000             
Ti    core 0.0655849 0.2324586 0.2308222 2.43599999 1.00000 0.00000             
Ti    core 0.9822366 0.3991504 0.2286301 2.43599999 1.00000 0.00000             
Ti    core 0.8989221 0.2324634 0.2308196 2.43599999 1.00000 0.00000             
Ti    core 0.8155749 0.3991544 0.2286161 2.43599999 1.00000 0.00000             
Ti    core 0.7322485 0.2324569 0.2308140 2.43599999 1.00000 0.00000             
Ti    core 0.6489242 0.3991545 0.2285897 2.43599999 1.00000 0.00000             
Ti    core 0.5655794 0.2324645 0.2308133 2.43599999 1.00000 0.00000             
Ti    core 0.4822677 0.3991563 0.2285855 2.43599999 1.00000 0.00000             
Ti    core 0.3989181 0.2324643 0.2308143 2.43599999 1.00000 0.00000             
Ti    core 0.3155933 0.3991561 0.2286072 2.43599999 1.00000 0.00000             
Ti    core 0.2321301 0.8991837 0.2310456 2.43599999 1.00000 0.00000             
Ti    core 0.1489010 0.0657557 0.2287697 2.43599999 1.00000 0.00000             
Ti    core 0.0656508 0.8991776 0.2310685 2.43599999 1.00000 0.00000             
Ti    core 0.9822860 0.0657594 0.2287629 2.43599999 1.00000 0.00000             
Ti    core 0.8990622 0.8991896 0.2309700 2.43599999 1.00000 0.00000             
Ti    core 0.8156288 0.0657703 0.2287289 2.43599999 1.00000 0.00000             
Ti    core 0.7323319 0.8991905 0.2308780 2.43599999 1.00000 0.00000             
Ti    core 0.6489233 0.0657758 0.2287039 2.43599999 1.00000 0.00000             
Ti    core 0.5655464 0.8991796 0.2308558 2.43599999 1.00000 0.00000             
Ti    core 0.4822116 0.0657653 0.2287143 2.43599999 1.00000 0.00000             
Ti    core 0.3987657 0.8991869 0.2309249 2.43599999 1.00000 0.00000             
Ti    core 0.3155318 0.0657580 0.2287483 2.43599999 1.00000 0.00000             
Ti    core 0.2323083 0.5658802 0.2306846 2.43599999 1.00000 0.00000             
Ti    core 0.1488796 0.7326171 0.2285194 2.43599999 1.00000 0.00000             
Ti    core 0.0655288 0.5658789 0.2306919 2.43599999 1.00000 0.00000             
Ti    core 0.9821884 0.7326133 0.2285951 2.43599999 1.00000 0.00000             
Ti    core 0.8988066 0.5658650 0.2307549 2.43599999 1.00000 0.00000             
Ti    core 0.8155504 0.7325941 0.2286721 2.43599999 1.00000 0.00000             
Ti    core 0.7321544 0.5658679 0.2308367 2.43599999 1.00000 0.00000             
Ti    core 0.6489386 0.7325847 0.2286759 2.43599999 1.00000 0.00000             
Ti    core 0.5656253 0.5658684 0.2308612 2.43599999 1.00000 0.00000             
Ti    core 0.4823015 0.7325956 0.2286074 2.43599999 1.00000 0.00000             
O2    core 0.3942922 0.7303633 0.3495925 -1.2179999 1.00000 0.00000             
O2    core 0.2328100 0.4026636 0.3501940 -1.2179999 1.00000 0.00000             
O2    core 0.0656995 0.4003176 0.3502053 -1.2179999 1.00000 0.00000             
O2    core 0.8985543 0.4002572 0.3502663 -1.2179999 1.00000 0.00000             
O3    core 0.7283838 0.4001490 0.3499683 
H22    core 0.7283838 0.4001490 0.3599683 
O2    core 0.5672754 0.2324752 0.3562024 
#H22   core 0.5668699 0.2044133 0.3631330 
O2    core 0.4025052 0.4002071 0.3500153 -1.2179999 1.00000 0.00000             
O2    core 0.2316490 0.0675945 0.3498984 -1.2179999 1.00000 0.00000             
O2    core 0.0664131 0.0690181 0.3499351 -1.2179999 1.00000 0.00000             
O2    core 0.8988450 0.0684546 0.3501684 -1.2179999 1.00000 0.00000             
O2    core 0.7321628 0.0655983 0.3501430 -1.2179999 1.00000 0.00000             
O2    core 0.5655794 0.0676529 0.3500591 -1.2179999 1.00000 0.00000             
O2    core 0.3990059 0.0665489 0.3501466 -1.2179999 1.00000 0.00000             
O3    core 0.2313293 0.7333655 0.3498735 -0.3380000 1.00000 0.00000             
H22   core 0.2280170 0.7462786 0.3579955 0.12000000 1.00000 0.00000             
O2    core 0.0710092 0.7279050 0.3492797 -1.2179999 1.00000 0.00000             
O2    core 0.8990281 0.7301126 0.3503543 -1.2179999 1.00000 0.00000             
O2    core 0.7324456 0.7329328 0.3502788 -1.2179999 1.00000 0.00000             
O2    core 0.5656030 0.7332414 0.3503448 -1.2179999 1.00000 0.00000             
O2    core 0.1492370 0.1727477 0.3404182 -1.2179999 1.00000 0.00000             
O2    core 0.9816521 0.1729124 0.3406373 -1.2179999 1.00000 0.00000             
O2    core 0.8148825 0.1727385 0.3406475 -1.2179999 1.00000 0.00000             
O2    core 0.6503739 0.1719272 0.3404015 -1.2179999 1.00000 0.00000             
O2    core 0.4811541 0.1721829 0.3404119 -1.2179999 1.00000 0.00000             
O2    core 0.3166523 0.1729163 0.3406855 -1.2179999 1.00000 0.00000             
O2    core 0.1510903 0.8308490 0.3387486 -1.2179999 1.00000 0.00000             
O2    core 0.9802494 0.8358473 0.3406327 -1.2179999 1.00000 0.00000             
O2    core 0.8158635 0.8381509 0.3408281 -1.2179999 1.00000 0.00000             
O2    core 0.6489599 0.8381419 0.3407451 -1.2179999 1.00000 0.00000             
O2    core 0.4810010 0.8373651 0.3409009 -1.2179999 1.00000 0.00000             
O2    core 0.3169155 0.8336042 0.3401538 -1.2179999 1.00000 0.00000             
O2    core 0.9825014 0.5057343 0.3406369 -1.2179999 1.00000 0.00000             
O2    core 0.4774803 0.5018054 0.3391641 -1.2179999 1.00000 0.00000             
O2    core 0.3164100 0.5062034 0.3407177 -1.2179999 1.00000 0.00000             
O2    core 0.1484196 0.5066578 0.3406554 -1.2179999 1.00000 0.00000             
O2    core 0.8155532 0.5049399 0.3407503 -1.2179999 1.00000 0.00000             
O2    core 0.6535044 0.5012043 0.3391168 -1.2179999 1.00000 0.00000             
O2    core 0.3126154 0.6290579 0.3405782 -1.2179999 1.00000 0.00000             
O2    core 0.1496129 0.2937973 0.3408388 -1.2179999 1.00000 0.00000             
O2    core 0.9823182 0.2939104 0.3407760 -1.2179999 1.00000 0.00000             
O2    core 0.8150762 0.2940196 0.3409854 -1.2179999 1.00000 0.00000             
O2    core 0.6477154 0.2956240 0.3406003 -1.2179999 1.00000 0.00000             
O2    core 0.4836422 0.2958032 0.3406975 -1.2179999 1.00000 0.00000             
O2    core 0.3157660 0.2941831 0.3409886 -1.2179999 1.00000 0.00000             
O2    core 0.9796337 0.9615047 0.3405188 -1.2179999 1.00000 0.00000             
O2    core 0.4826192 0.9591828 0.3407781 -1.2179999 1.00000 0.00000             
O2    core 0.3183314 0.9606529 0.3404323 -1.2179999 1.00000 0.00000             
O2    core 0.1524030 0.6288629 0.3402812 -1.2179999 1.00000 0.00000             
O2    core 0.9824652 0.6265914 0.3407467 -1.2179999 1.00000 0.00000             
O2    core 0.8155959 0.6264220 0.3406966 -1.2179999 1.00000 0.00000             
O2    core 0.6502292 0.6265670 0.3407732 -1.2179999 1.00000 0.00000             
O2    core 0.4802569 0.6270173 0.3408781 -1.2179999 1.00000 0.00000             
O2    core 0.1491534 0.9640359 0.3389370 -1.2179999 1.00000 0.00000             
O2    core 0.8155262 0.9598094 0.3407905 -1.2179999 1.00000 0.00000             
O2    core 0.6484667 0.9594075 0.3407388 -1.2179999 1.00000 0.00000             
O2    core 0.4021943 0.7309284 0.3288896 -1.2179999 1.00000 0.00000             
O2    core 0.2325390 0.4004440 0.3295542 -1.2179999 1.00000 0.00000             
O2    core 0.0660511 0.3994395 0.3295194 -1.2179999 1.00000 0.00000             
O2    core 0.8989672 0.3994032 0.3295530 -1.2179999 1.00000 0.00000             
O2    core 0.7345017 0.3965460 0.3291971 -1.2179999 1.00000 0.00000             
O2    core 0.5653997 0.3965951 0.3297215 -1.2179999 1.00000 0.00000             
O2    core 0.3969392 0.3968646 0.3292652 -1.2179999 1.00000 0.00000             
O2    core 0.2341479 0.0691687 0.3292664 -1.2179999 1.00000 0.00000             
O2    core 0.0641292 0.0691798 0.3292769 -1.2179999 1.00000 0.00000             
O2    core 0.8978732 0.0666304 0.3294484 -1.2179999 1.00000 0.00000             
O2    core 0.7321683 0.0653485 0.3294597 -1.2179999 1.00000 0.00000             
O2    core 0.5656044 0.0655162 0.3294413 -1.2179999 1.00000 0.00000             
O2    core 0.3997415 0.0658557 0.3294155 -1.2179999 1.00000 0.00000             
O2    core 0.2335415 0.7291342 0.3299566 -1.2179999 1.00000 0.00000             
O2    core 0.0608236 0.7288718 0.3286719 -1.2179999 1.00000 0.00000             
O2    core 0.8979094 0.7316794 0.3295346 -1.2179999 1.00000 0.00000             
O2    core 0.7323569 0.7321217 0.3295526 -1.2179999 1.00000 0.00000             
O2    core 0.5656174 0.7330927 0.3296219 -1.2179999 1.00000 0.00000             
O2    core 0.3962739 0.5679846 0.3228535 -1.2179999 1.00000 0.00000             
O2    core 0.2327983 0.2335188 0.3229526 -1.2179999 1.00000 0.00000             
O2    core 0.0656073 0.2334713 0.3229577 -1.2179999 1.00000 0.00000             
O2    core 0.8985622 0.2334104 0.3229886 -1.2179999 1.00000 0.00000             
O2    core 0.7324464 0.2337670 0.3229675 -1.2179999 1.00000 0.00000             
O2    core 0.5656219 0.2327413 0.3231030 -1.2179999 1.00000 0.00000             
O2    core 0.3987967 0.2339620 0.3229872 -1.2179999 1.00000 0.00000             
O2    core 0.2354093 0.8986718 0.3235087 -1.2179999 1.00000 0.00000             
O2    core 0.0628104 0.8981278 0.3236359 -1.2179999 1.00000 0.00000             
O2    core 0.8972591 0.8987839 0.3230171 -1.2179999 1.00000 0.00000             
O2    core 0.7320006 0.8990620 0.3230152 -1.2179999 1.00000 0.00000             
O2    core 0.5654223 0.8984382 0.3229855 -1.2179999 1.00000 0.00000             
O2    core 0.4006765 0.8982202 0.3229911 -1.2179999 1.00000 0.00000             
O2    core 0.2324543 0.5654867 0.3226871 -1.2179999 1.00000 0.00000             
O2    core 0.0661642 0.5668515 0.3229011 -1.2179999 1.00000 0.00000             
O2    core 0.8992465 0.5659177 0.3228932 -1.2179999 1.00000 0.00000             
O2    core 0.7343645 0.5667384 0.3228320 -1.2179999 1.00000 0.00000             
O2    core 0.5652433 0.5664549 0.3235568 -1.2179999 1.00000 0.00000             
O2    core 0.3151799 0.6677086 0.3124586 -1.2179999 1.00000 0.00000             
O2    core 0.3155886 0.4648877 0.3123908 -1.2179999 1.00000 0.00000             
O2    core 0.1491096 0.3340738 0.3125709 -1.2179999 1.00000 0.00000             
O2    core 0.1490659 0.1319321 0.3124187 -1.2179999 1.00000 0.00000             
O2    core 0.9823206 0.3340223 0.3125480 -1.2179999 1.00000 0.00000             
O2    core 0.9817704 0.1319857 0.3123981 -1.2179999 1.00000 0.00000             
O2    core 0.8161516 0.3336866 0.3123042 -1.2179999 1.00000 0.00000             
O2    core 0.8152036 0.1316894 0.3125086 -1.2179999 1.00000 0.00000             
O2    core 0.6487213 0.3339799 0.3125832 -1.2179999 1.00000 0.00000             
O2    core 0.6489050 0.1314553 0.3125666 -1.2179999 1.00000 0.00000             
O2    core 0.4824675 0.3339850 0.3125650 -1.2179999 1.00000 0.00000             
O2    core 0.4824473 0.1315574 0.3125336 -1.2179999 1.00000 0.00000             
O2    core 0.3150990 0.3338592 0.3123520 -1.2179999 1.00000 0.00000             
O2    core 0.3162901 0.1319192 0.3123774 -1.2179999 1.00000 0.00000             
O2    core 0.1490490 0.0008589 0.3127392 -1.2179999 1.00000 0.00000             
O2    core 0.1491125 0.7960677 0.3130309 -1.2179999 1.00000 0.00000             
O2    core 0.9820714 0.0006863 0.3125470 -1.2179999 1.00000 0.00000             
O2    core 0.9813033 0.7977093 0.3122750 -1.2179999 1.00000 0.00000             
O2    core 0.8153661 0.0004385 0.3124887 -1.2179999 1.00000 0.00000             
O2    core 0.8151024 0.7978048 0.3125212 -1.2179999 1.00000 0.00000             
O2    core 0.6488025 0.0001918 0.3125348 -1.2179999 1.00000 0.00000             
O2    core 0.6490338 0.7977666 0.3125625 -1.2179999 1.00000 0.00000             
O2    core 0.4823687 0.0001886 0.3124617 -1.2179999 1.00000 0.00000             
O2    core 0.4829359 0.7977052 0.3122468 -1.2179999 1.00000 0.00000             
O2    core 0.3159830 0.0004993 0.3124980 -1.2179999 1.00000 0.00000             
O2    core 0.3158508 0.7963572 0.3128100 -1.2179999 1.00000 0.00000             
O2    core 0.1493635 0.6676283 0.3126034 -1.2179999 1.00000 0.00000             
O2    core 0.1489559 0.4650207 0.3125123 -1.2179999 1.00000 0.00000             
O2    core 0.9813405 0.6664688 0.3120491 -1.2179999 1.00000 0.00000             
O2    core 0.9826836 0.4648900 0.3125541 -1.2179999 1.00000 0.00000             
O2    core 0.8156875 0.6669657 0.3123952 -1.2179999 1.00000 0.00000             
O2    core 0.8158378 0.4646336 0.3124174 -1.2179999 1.00000 0.00000             
O2    core 0.6489238 0.6668183 0.3126637 -1.2179999 1.00000 0.00000             
O2    core 0.6487229 0.4636494 0.3127983 -1.2179999 1.00000 0.00000             
O2    core 0.4829953 0.6665827 0.3123397 -1.2179999 1.00000 0.00000             
O2    core 0.4821029 0.4638952 0.3127774 -1.2179999 1.00000 0.00000             
O2    core 0.4000579 0.5656901 0.3016080 -1.2179999 1.00000 0.00000             
O2    core 0.2321979 0.2327974 0.3015665 -1.2179999 1.00000 0.00000             
O2    core 0.0656399 0.2331039 0.3015896 -1.2179999 1.00000 0.00000             
O2    core 0.8989936 0.2327137 0.3015736 -1.2179999 1.00000 0.00000             
O2    core 0.7319117 0.2328292 0.3016041 -1.2179999 1.00000 0.00000             
O2    core 0.5656362 0.2329432 0.3016617 -1.2179999 1.00000 0.00000             
O2    core 0.3993851 0.2330698 0.3016057 -1.2179999 1.00000 0.00000             
O2    core 0.2311747 0.8977284 0.3021523 -1.2179999 1.00000 0.00000             
O2    core 0.0669516 0.8983714 0.3021754 -1.2179999 1.00000 0.00000             
O2    core 0.8994326 0.8993453 0.3017321 -1.2179999 1.00000 0.00000             
O2    core 0.7321662 0.8991387 0.3016186 -1.2179999 1.00000 0.00000             
O2    core 0.5658281 0.8992514 0.3015892 -1.2179999 1.00000 0.00000             
O2    core 0.3980642 0.8983075 0.3017132 -1.2179999 1.00000 0.00000             
O2    core 0.2320516 0.5666642 0.3014042 -1.2179999 1.00000 0.00000             
O2    core 0.0657161 0.5662275 0.3014774 -1.2179999 1.00000 0.00000             
O2    core 0.8989413 0.5651982 0.3014739 -1.2179999 1.00000 0.00000             
O2    core 0.7311150 0.5650811 0.3016478 -1.2179999 1.00000 0.00000             
O2    core 0.5657464 0.5644819 0.3019272 -1.2179999 1.00000 0.00000             
O2    core 0.3984925 0.7321831 0.2955883 -1.2179999 1.00000 0.00000             
O2    core 0.2322470 0.3995886 0.2958131 -1.2179999 1.00000 0.00000             
O2    core 0.0657063 0.3993855 0.2958423 -1.2179999 1.00000 0.00000             
O2    core 0.8990560 0.3994651 0.2958139 -1.2179999 1.00000 0.00000             
O2    core 0.7319030 0.3991792 0.2957227 -1.2179999 1.00000 0.00000             
O2    core 0.5655433 0.3992525 0.2957399 -1.2179999 1.00000 0.00000             
O2    core 0.3992266 0.3992211 0.2957398 -1.2179999 1.00000 0.00000             
O2    core 0.2323347 0.0660181 0.2958591 -1.2179999 1.00000 0.00000             
O2    core 0.0656545 0.0660928 0.2958688 -1.2179999 1.00000 0.00000             
O2    core 0.8987197 0.0660838 0.2958655 -1.2179999 1.00000 0.00000             
O2    core 0.7320526 0.0659293 0.2958590 -1.2179999 1.00000 0.00000             
O2    core 0.5656686 0.0659667 0.2958540 -1.2179999 1.00000 0.00000             
O2    core 0.3991740 0.0659543 0.2958491 -1.2179999 1.00000 0.00000             
O2    core 0.2321299 0.7324263 0.2955885 -1.2179999 1.00000 0.00000             
O2    core 0.0662861 0.7322248 0.2955444 -1.2179999 1.00000 0.00000             
O2    core 0.8989637 0.7324387 0.2957613 -1.2179999 1.00000 0.00000             
O2    core 0.7320622 0.7322866 0.2958698 -1.2179999 1.00000 0.00000             
O2    core 0.5655400 0.7322344 0.2958289 -1.2179999 1.00000 0.00000             
O2    core 0.3157346 0.5012102 0.2850654 -1.2179999 1.00000 0.00000             
O2    core 0.3158015 0.6305390 0.2849942 -1.2179999 1.00000 0.00000             
O2    core 0.1489448 0.1678486 0.2850253 -1.2179999 1.00000 0.00000             
O2    core 0.1490109 0.2975092 0.2850082 -1.2179999 1.00000 0.00000             
O2    core 0.9822812 0.1678346 0.2850284 -1.2179999 1.00000 0.00000             
O2    core 0.9822796 0.2974745 0.2850122 -1.2179999 1.00000 0.00000             
O2    core 0.8154865 0.1678233 0.2850550 -1.2179999 1.00000 0.00000             
O2    core 0.8155588 0.2973964 0.2850182 -1.2179999 1.00000 0.00000             
O2    core 0.6488423 0.1677736 0.2850507 -1.2179999 1.00000 0.00000             
O2    core 0.6488261 0.2974077 0.2850028 -1.2179999 1.00000 0.00000             
O2    core 0.4823365 0.1677690 0.2850547 -1.2179999 1.00000 0.00000             
O2    core 0.4823266 0.2974331 0.2849958 -1.2179999 1.00000 0.00000             
O2    core 0.3157413 0.1678477 0.2850616 -1.2179999 1.00000 0.00000             
O2    core 0.3156405 0.2974459 0.2850230 -1.2179999 1.00000 0.00000             
O2    core 0.1489719 0.8339041 0.2850673 -1.2179999 1.00000 0.00000             
O2    core 0.1490111 0.9640615 0.2852277 -1.2179999 1.00000 0.00000             
O2    core 0.9826280 0.8342329 0.2851524 -1.2179999 1.00000 0.00000             
O2    core 0.9826487 0.9639285 0.2852575 -1.2179999 1.00000 0.00000             
O2    core 0.8156635 0.8343420 0.2851172 -1.2179999 1.00000 0.00000             
O2    core 0.8156386 0.9639390 0.2851129 -1.2179999 1.00000 0.00000             
O2    core 0.6489166 0.8342766 0.2850495 -1.2179999 1.00000 0.00000             
O2    core 0.6489083 0.9639740 0.2850295 -1.2179999 1.00000 0.00000             
O2    core 0.4821154 0.8342534 0.2850694 -1.2179999 1.00000 0.00000             
O2    core 0.4820763 0.9637848 0.2851355 -1.2179999 1.00000 0.00000             
O2    core 0.3152512 0.8340639 0.2851320 -1.2179999 1.00000 0.00000             