opti  fix molmec phon pot prop comp conv
cell
  17.724000  19.461000   114.868482  90.000000  90.000000  90.000000
Cartesian
Ti    5.671680   14.271398   38.971218
Ti    2.637027    7.770388   39.206863
Ti   17.404959    7.780943   39.206936
Ti   14.446302    7.783219   39.215191
Ti   11.524151    7.776424   39.037285
Ti    8.526653    7.784618   39.053482
Ti    5.602525    7.774436   39.211819
Ti    2.634519    1.282363   39.148590
Ti   17.408394    1.283291   39.201859
Ti   14.454948    1.290173   39.204056
Ti   11.501440    1.280891   39.195805
Ti    8.540462    1.283468   39.197559
Ti    5.590721    1.281627   39.198792
Ti    2.550450   14.273030   38.900448
Ti   17.393604   14.269197   39.216934
Ti   14.454275   14.260263   39.214638
Ti   11.505188   14.247090   39.214298
Ti    8.561261   14.242983   39.223511
Ti    1.159654    4.521157   38.954643
Ti   15.925074    4.533202   38.957756
Ti   12.969171    4.544652   38.949604
Ti   15.945260   17.503151   38.957157
Ti   10.015586   17.483587   38.957645
Ti    7.051400   17.502298   38.959026
Ti   15.926085   11.023295   38.944180
Ti   10.022345   10.994784   39.107346
Ti    7.071297   11.035550   38.925144
Ti    4.120719    4.514543   38.950851
Ti   10.023361    4.492151   38.984306
Ti    7.076834    4.543793   38.953087
Ti    4.095074   17.532568   39.123783
Ti    1.172109   17.512171   39.135544
Ti   12.981095   17.500750   38.962078
Ti    4.118967   10.975205   38.900898
Ti    1.160130   11.041310   38.945774
Ti   12.973418   11.026755   38.922527
Ti    5.591478   11.018444   35.790531
Ti    2.637887    4.531375   35.835770
Ti   17.406334    4.532602   35.835999
Ti   14.454542    4.529978   35.827805
Ti   11.498579    4.525987   35.841518
Ti    8.547362    4.525887   35.842377
Ti    5.591605    4.530002   35.825176
Ti    2.635862   17.509579   35.999928
Ti   17.410549   17.507086   35.891953
Ti   14.452136   17.503428   35.837566
Ti   11.499973   17.499212   35.841034
Ti    8.548025   17.500496   35.831150
Ti    5.587951   17.506332   35.891350
Ti    2.633794   11.017484   35.809261
Ti   17.405575   11.016821   35.820240
Ti   14.456700   11.020214   35.810478
Ti   11.494014   11.011426   35.887348
Ti    8.553721   11.010272   35.883827
Ti    7.098189   14.253627   35.860134
Ti    4.111388    7.773615   35.920212
Ti    1.160943    7.770774   35.923397
Ti   15.934493    7.775072   35.923695
Ti   12.991934    7.766969   35.884689
Ti   10.021910    7.766924   35.884544
Ti    7.055240    7.762841   35.886780
Ti    4.117131    1.289461   35.921818
Ti    1.158008    1.290094   35.923180
Ti   15.929620    1.287700   35.927719
Ti   12.976452    1.282538   35.925381
Ti   10.022268    1.282272   35.923927
Ti    7.068957    1.285294   35.924789
Ti    4.117078   14.265439   35.867260
Ti    1.126793   14.263629   35.847263
Ti   15.921379   14.262784   35.925346
Ti   12.976707   14.254820   35.929012
Ti   10.031746   14.254161   35.933586
Ti    5.592109   14.259492   32.691425
Ti    2.636511    7.773303   32.720955
Ti   17.408722    7.773128   32.722515
Ti   14.456582    7.772352   32.715710
Ti   11.499816    7.771658   32.699955
Ti    8.545659    7.771575   32.699734
Ti    5.589267    7.772498   32.714649
Ti    2.637403    1.285274   32.734833
Ti   17.407627    1.285154   32.737701
Ti   14.453222    1.284863   32.733883
Ti   11.499563    1.284897   32.729435
Ti    8.545881    1.284093   32.731853
Ti    5.591610    1.284471   32.736370
Ti    2.637323   14.261456   32.682331
Ti   17.401812   14.261157   32.708858
Ti   14.451157   14.259167   32.731522
Ti   11.500140   14.258053   32.730312
Ti    8.551931   14.258611   32.713158
Ti    7.077091   11.014935   32.722549
Ti    4.113887    4.527951   32.725266
Ti    1.160632    4.529151   32.727882
Ti   15.931420    4.528512   32.726284
Ti   12.975993    4.529027   32.725971
Ti   10.022608    4.528377   32.728344
Ti    7.069613    4.528878   32.725975
Ti    4.106648   17.502556   32.787155
Ti    1.167642   17.503344   32.788204
Ti   15.936479   17.503220   32.749836
Ti   12.977650   17.502638   32.733307
Ti   10.022632   17.501926   32.731365
Ti    7.062114   17.501518   32.745796
Ti    4.114349   11.016088   32.702862
Ti    1.158484   11.018300   32.709305
Ti   15.929036   11.014963   32.714592
Ti   12.970452   11.013784   32.731300
Ti   10.023955   11.013223   32.748730
Ti    5.593739   11.015824   29.604521
Ti    2.637567    4.528942   29.620132
Ti   17.407768    4.528779   29.620361
Ti   14.453742    4.528572   29.618910
Ti   11.499542    4.528330   29.618683
Ti    8.545784    4.528420   29.618807
Ti    5.591780    4.528759   29.618401
Ti    2.637624   17.502708   29.663568
Ti   17.410873   17.502792   29.650953
Ti   14.455641   17.502996   29.632702
Ti   11.499764   17.503014   29.625479
Ti    8.543589   17.502743   29.629210
Ti    5.588118   17.502645   29.647301
Ti    2.637504   11.016004   29.600761
Ti   17.406590   11.016094   29.606337
Ti   14.451720   11.015610   29.614761
Ti   11.498428   11.015523   29.626444
Ti    8.547803   11.015744   29.622257
Ti    7.071307   14.259754   29.517277
Ti    4.113855    7.772310   29.522058
Ti    1.160490    7.772210   29.525085
Ti   15.931472    7.772348   29.523720
Ti   12.978011    7.771969   29.518772
Ti   10.022795    7.771859   29.515043
Ti    7.067555    7.772146   29.517431
Ti    4.114359    1.285249   29.542219
Ti    1.160781    1.284928   29.543007
Ti   15.931406    1.284677   29.540297
Ti   12.977143    1.284834   29.536573
Ti   10.022249    1.284577   29.535845
Ti    7.067807    1.284557   29.538736
Ti    4.115175   14.259396   29.509493
Ti    1.157831   14.259759   29.514988
Ti   15.928007   14.259854   29.526581
Ti   12.976456   14.259516   29.533413
Ti   10.024805   14.259916   29.528259
Ti    7.071009   11.016479   26.491720
Ti    5.592050   14.261658   26.238510
Ti    4.114475    4.527503   26.498615
Ti    2.637415    7.771770   26.245043
Ti    1.160716    4.527676   26.499573
Ti   17.407539    7.771786   26.245913
Ti   15.930978    4.527818   26.498964
Ti   14.453764    7.771831   26.243814
Ti   12.976873    4.527749   26.497597
Ti   11.499940    7.771806   26.240152
Ti   10.022651    4.527931   26.497112
Ti    8.545876    7.771843   26.239309
Ti    7.068566    4.527889   26.497562
Ti    5.591586    7.771866   26.242264
Ti    4.112669   17.503183   26.528191
Ti    2.637487    1.283491   26.265354
Ti    1.162058   17.503061   26.530039
Ti   17.408436    1.283551   26.264294
Ti   15.933301   17.503284   26.518005
Ti   14.454563    1.283809   26.260374
Ti   12.978028   17.503279   26.507568
Ti   11.499828    1.283953   26.257818
Ti   10.021888   17.503063   26.505749
Ti    8.545000    1.283741   26.259314
Ti    7.065959   17.503233   26.514317
Ti    5.590803    1.283563   26.263256
Ti    4.115510   11.016765   26.482660
Ti    2.637162   14.261918   26.237087
Ti    1.159760   11.016768   26.483862
Ti   17.406803   14.261849   26.245001
Ti   15.928996   11.016444   26.490387
Ti   14.453249   14.261384   26.253138
Ti   12.975236   11.016438   26.498631
Ti   11.500083   14.261145   26.253630
Ti   10.023420   11.016379   26.501106
Ti    8.546517   14.261379   26.246605
 O2    6.992416   14.213443   40.150314
 O2    4.124825    7.840508   40.209091
 O2    1.161651    7.794800   40.212006
 O2   15.921903    7.794692   40.217613
 O2   12.904616    7.793390   40.179142
 O3   10.044280    4.527218   40.899906
 H22   10.039353    3.967986   41.686932
 O2    7.134872    7.798460   40.181217
 O2    4.102299    1.320805   40.180126
 O2    1.173315    1.349179   40.183262
 O2   15.927922    1.337501   40.209553
 O2   12.973910    1.281993   40.206734
 O2   10.021617    1.321566   40.197479
 O2    7.069441    1.302763   40.208275
 O2    4.095722   14.274708   40.183769
 #H22    4.026582   14.525581   41.116104
 O2    1.255570   14.168211   40.108315
 O2   15.931990   14.212989   40.230206
 O2   12.979895   14.267520   40.220757
 O3   10.024328   14.272103   40.227982
 H22   10.024328   14.272103   41.227982
 O2    2.642086    3.366482   39.088943
 O2   17.395384    3.369928   39.113537
 O2   14.439371    3.367140   39.114788
 O2   11.523991    3.351395   39.086254
 O2    8.525512    3.355329   39.086742
 O2    5.609202    3.369437   39.118958
 O2    2.675681   16.173956   38.905701
 O2   17.369823   16.270452   39.111908
 O2   14.457336   16.316101   39.136570
 O2   11.499399   16.315866   39.127064
 O2    8.523046   16.299751   39.146965
 O2    5.612868   16.225817   39.076691
 O2   17.411177    9.846815   39.113224
 O2    8.458702    9.769444   38.923851
 O2    5.605180    9.854306   39.118183
 O2    2.627858    9.864199   39.115265
 O2   14.451764    9.831555   39.123280
 O2   11.579399    9.760621   38.930401
 O2    5.539078   12.244638   39.112144
 O2    2.649057    5.722067   39.136555
 O2   17.407457    5.724551   39.129520
 O2   14.443126    5.727422   39.151508
 O2   11.476041    5.758713   39.105637
 O2    8.568010    5.761277   39.112717
 O2    5.594588    5.729472   39.152596
 O2   17.358644   18.717472   39.098774
 O2    8.550335   18.670738   39.133793
 O2    5.638213   18.697493   39.101631
 O2    2.699205   12.242317   39.073814
 O2   17.410452   12.198690   39.125443
 O2   14.453009   12.195551   39.118614
 O2   11.522819   12.200441   39.120735
 O2    8.507895   12.208528   39.130669
 O2    2.640188   18.765118   38.924496
 O2   14.451231   18.683832   39.132450
 O2   11.490525   18.675917   39.127331
 O2    7.123291   14.231300   37.770100
 O2    4.118012    7.796755   37.838223
 O2    1.167859    7.777984   37.835869
 O2   15.930833    7.777639   37.838478
 O2   13.015698    7.722228   37.794254
 O2   10.019683    7.720688   37.846638
 O2    7.029107    7.724924   37.798409
 O2    4.147551    1.350136   37.810341
 O2    1.134132    1.350097   37.810345
 O2   15.910563    1.302106   37.829357
 O2   12.973865    1.276655   37.830822
 O2   10.021806    1.279296   37.829155
 O2    7.081565    1.284639   37.827175
 O2    4.140397   14.193601   37.894970
 O2    1.077103   14.190344   37.741364
 O2   15.912351   14.243628   37.838520
 O2   12.978776   14.253793   37.839668
 O2   10.022912   14.271084   37.847702
 O2    7.019680   11.059096   37.066063
 O2    4.123898    4.549231   37.081718
 O2    1.160272    4.548316   37.083195
 O2   15.923243    4.547271   37.085968
 O2   12.978879    4.554339   37.082298
 O2   10.022616    4.533815   37.096767
 O2    7.065457    4.556892   37.083885
 O2    4.171038   17.492561   37.156502
 O2    1.110899   17.482672   37.163162
 O2   15.900476   17.495876   37.090286
 O2   12.971714   17.501356   37.090786
 O2   10.019198   17.489349   37.088760
 O2    7.098601   17.483719   37.092960
 O2    4.117994   11.009681   37.051121
 O2    1.170412   11.036005   37.076427
 O2   15.935760   11.017813   37.074097
 O2   13.013318   11.034071   37.063854
 O2   10.017063   11.030383   37.141563
 O2    5.583717   12.998773   35.877697
 O2    5.590271    9.051601   35.864517
 O2    2.640033    6.505790   35.888462
 O2    2.639665    2.571837   35.874027
 O2   17.408335    6.504950   35.886101
 O2   17.398659    2.572922   35.871128
 O2   14.463435    6.498408   35.856426
 O2   14.446173    2.567359   35.882992
 O2   11.496345    6.503674   35.884571
 O2   11.498584    2.562586   35.889393
 O2    8.548235    6.503923   35.883530
 O2    8.548180    2.564282   35.886230
 O2    5.581378    6.501059   35.859550
 O2    5.603397    2.571388   35.868568
 O2    2.639817    0.020958   35.912983
 O2    2.641935   15.496815   35.948486
 O2   17.403988    0.017780   35.888424
 O2   17.390862   15.528877   35.856934
 O2   14.449103    0.013171   35.881386
 O2   14.444935   15.530890   35.884068
 O2   11.496872    0.008194   35.887184
 O2   11.501097   15.530016   35.889328
 O2    8.546756    0.007778   35.880081
 O2    8.556902   15.528516   35.855919
 O2    5.597878    0.013830   35.885532
 O2    5.595758   15.503184   35.920841
 O2    2.645784   12.997726   35.896721
 O2    2.637563    9.054432   35.881958
 O2   17.391745   12.975081   35.831028
 O2   17.414927    9.052003   35.886589
 O2   14.455369   12.984592   35.868740
 O2   14.458007    9.046968   35.868805
 O2   11.499869   12.981927   35.897522
 O2   11.496000    9.027883   35.908627
 O2    8.557327   12.977431   35.863377
 O2    8.541695    9.031704   35.906925
 O2    7.087375   11.012892   34.626675
 O2    4.112335    4.534095   34.625031
 O2    1.160888    4.540346   34.628540
 O2   15.931720    4.532842   34.626118
 O2   12.970513    4.534847   34.628338
 O2   10.022784    4.537402   34.634293
 O2    7.076037    4.539781   34.628242
 O2    4.095407   17.475519   34.699150
 O2    1.186144   17.487360   34.698910
 O2   15.939621   17.506706   34.645844
 O2   12.974326   17.502621   34.633129
 O2   10.025558   17.504576   34.631050
 O2    7.052210   17.486725   34.647488
 O2    4.109437   11.032520   34.605850
 O2    1.162704   11.024553   34.615261
 O2   15.931494   11.004405   34.613655
 O2   12.957486   11.001934   34.630871
 O2   10.024455   10.990116   34.661312
 O2    7.060955   14.253433   33.941940
 O2    4.113993    7.780842   33.962231
 O2    1.162475    7.776989   33.967003
 O2   15.932912    7.778465   33.962978
 O2   12.970413    7.773010   33.950367
 O2   10.021349    7.774114   33.950180
 O2    7.073659    7.773518   33.950920
 O2    4.115647    1.288937   33.972393
 O2    1.161699    1.290399   33.972977
 O2   15.926813    1.290445   33.972061
 O2   12.972705    1.287483   33.971218
 O2   10.023594    1.288092   33.971062
 O2    7.072689    1.287759   33.971027
 O2    4.111941   14.258244   33.942738
 O2    1.173157   14.254382   33.936119
 O2   15.931375   14.258288   33.959503
 O2   12.973183   14.255605   33.971138
 O2   10.021546   14.254270   33.967094
 O2    5.593465    9.758329   32.727352
 O2    5.594879   12.275230   32.722008
 O2    2.637646    3.270484   32.726063
 O2    2.638734    5.793987   32.722942
 O2   17.407940    3.270199   32.726383
 O2   17.407959    5.793310   32.723606
 O2   14.451774    3.270123   32.728779
 O2   14.453156    5.791812   32.723278
 O2   11.497997    3.269279   32.728020
 O2   11.497931    5.792064   32.720245
 O2    8.546737    3.269212   32.728596
 O2    8.546558    5.792584   32.719021
 O2    5.593900    3.270681   32.730068
 O2    5.591933    5.792767   32.723351
 O2    2.638863   16.232925   32.733852
 O2    2.639395   18.765854   32.751804
 O2   17.414455   16.239426   32.742577
 O2   17.414810   18.763105   32.754669
 O2   14.454849   16.241520   32.737366
 O2   14.454316   18.763439   32.737278
 O2   11.499118   16.240192   32.729969
 O2   11.498920   18.764124   32.728191
 O2    8.542567   16.239744   32.733593
 O2    8.541942   18.760504   32.741127
 O2    5.585304   16.236067   32.741791
 O2    5.585818   18.760517   32.757008
 O2    2.637472    9.758211   32.718102
 O2    2.638737   12.278674   32.706688
 O2   17.410191    9.755955   32.716667
 O2   17.406832   12.277242   32.710598
 O2   14.450856    9.753761   32.721718
 O2   14.450000   12.272907   32.731293
 O2   11.495759    9.748942   32.717751
 O2   11.494802   12.275116   32.730461
 O2    8.547821    9.750626   32.718914
 O2    8.549852   12.276514   32.723392
 O2    7.073550   14.258254   31.468903
 O2    4.113717    7.778208   31.477573
 O2    1.161309    7.775304   31.480055
 O2   15.932801    7.774388   31.477985
 O2   12.980318    7.770776   31.470844
 O2   10.022066    7.768559   31.466719
 O2    7.064161    7.774586   31.470907
 O2    4.116410    1.288049   31.493214
 O2    1.160188    1.287324   31.493265
 O2   15.931422    1.283826   31.492418
 O2   12.977008    1.285880   31.489302
 O2   10.020989    1.283553   31.489061
 O2    7.067439    1.282067   31.491724
 O2    4.118313   14.250513   31.460920
 O2    1.154175   14.254109   31.463505
 O2   15.923894   14.258249   31.478891
 O2   12.976396   14.258055   31.487259
 O2   10.026511   14.262550   31.481209
 O2    7.064979   11.015597   30.820251
 O2    4.115900    4.531378   30.824127
 O2    1.160980    4.532099   30.825132
 O2   15.929940    4.530948   30.824568
 O2   12.976030    4.530821   30.823927
 O2   10.022450    4.530228   30.824390
 O2    7.068865    4.531009   30.824078
 O2    4.118421   17.500555   30.862707
 O2    1.159274   17.501713   30.863504
 O2   15.928900   17.501699   30.844912
 O2   12.975556   17.501308   30.832180
 O2   10.021545   17.501425   30.830967
 O2    7.069853   17.500708   30.842268
 O2    4.115725   11.015950   30.808281
 O2    1.162624   11.016258   30.809591
 O2   15.931229   11.015168   30.815737
 O2   12.977997   11.015431   30.826311
 O2   10.021176   11.014643   30.832766
 O2    5.593484   12.983747   29.555603
 O2    5.591086    9.048392   29.557526
 O2    2.638053    6.498492   29.565079
 O2    2.638029    2.561558   29.575287
 O2   17.408073    6.498019   29.564526
 O2   17.407585    2.561421   29.574463
 O2   14.454604    6.497329   29.561626
 O2   14.453712    2.560997   29.573662
 O2   11.499912    6.497341   29.560116
 O2   11.499042    2.560670   29.573071
 O2    8.544666    6.497814   29.560694
 O2    8.545105    2.560647   29.573862
 O2    5.590890    6.498186   29.562361
 O2    5.592363    2.561338   29.574102
 O2    2.638435    0.009823   29.589094
 O2    2.638042   15.531649   29.575844
 O2   17.408482    0.009687   29.584375
 O2   17.406040   15.533492   29.572750
 O2   14.453937    0.010122   29.577747
 O2   14.452509   15.534524   29.570354
 O2   11.499194    0.010253   29.574757
 O2   11.500148   15.534669   29.568344
 O2    8.544586    0.009552   29.576784
 O2    8.546543   15.534084   29.566820
 O2    5.591063    0.009349   29.583462
 O2    5.592235   15.532408   29.570538
 O2    2.637771   12.984077   29.553415
 O2    2.637974    9.048592   29.558044
 O2   17.405342   12.983382   29.556786
 O2   17.408398    9.048221   29.559763
 O2   14.452230   12.982983   29.565056
 O2   14.454203    9.047389   29.560995
 O2   11.499502   12.983337   29.569750
 O2   11.499559    9.046405   29.563745
 O2    8.547302   12.983709   29.565094
 O2    8.544906    9.046945   29.562288
 O2    7.073557   11.015941   28.362926
 O2    4.114621    4.529902   28.368988
 O2    1.160955    4.529997   28.369825
 O2   15.931004    4.529110   28.369167
 O2   12.976482    4.528356   28.368198
 O2   10.022305    4.528966   28.368017
 O2    7.068812    4.529677   28.368202
 O2    4.110683   17.499556   28.399330
 O2    1.164540   17.500109   28.400824
 O2   15.935920   17.502855   28.388285
 O2   12.978660   17.504553   28.377804
 O2   10.020823   17.503696   28.376396
 O2    7.063030   17.501486   28.385302
 O2    4.116481   11.017605   28.353996
 O2    1.159528   11.017015   28.354763
 O2   15.927696   11.015153   28.360744
 O2   12.973027   11.014176   28.369038
 O2   10.023551   11.014290   28.371990
 O2    7.067552   14.259293   27.614040
 O2    4.115319    7.771660   27.614944
 O2    1.161216    7.771733   27.616964
 O2   15.930514    7.772216   27.616211
 O2   12.975776    7.772626   27.613388
 O2   10.022175    7.772831   27.611235
 O2    7.069133    7.772202   27.612242
 O2    4.115070    1.285080   27.635267
 O2    1.161205    1.284894   27.635805
 O2   15.930551    1.285464   27.632889
 O2   12.976173    1.285801   27.629496
 O2   10.022227    1.285729   27.629040
 O2    7.068772    1.285425   27.631870
 O2    4.114766   14.260695   27.609121
 O2    1.162269   14.260811   27.612638
 O2   15.931525   14.259674   27.620235
 O2   12.976255   14.258420   27.624901
 O2   10.021423   14.258286   27.621622
 O2    5.593770    9.836246   26.326025
 O2    2.637707    3.347299   26.340786
 O2   17.407856    3.347234   26.339888
 O2   14.453925    3.347186   26.337378
 O2   11.499496    3.347163   26.335913
 O2    8.545456    3.347161   26.336634
 O2    5.591802    3.347267   26.339205
 O2    2.637622   16.321621   26.346275
 O2   17.410486   16.322287   26.347815
 O2   14.456129   16.323065   26.345648
 O2   11.499945   16.323269   26.342764
 O2    8.543172   16.323051   26.342041
 O2    5.588521   16.322252   26.343868
 O2    2.637804    9.836398   26.324419
 O2   17.406313    9.836040   26.325705
 O2   14.451570    9.835613   26.328596
 O2   11.498922    9.835088   26.329479
 O2    8.547583    9.835340   26.327967
 O2    5.594005   12.197160   26.323633
 O2    2.637864    5.708769   26.330580
 O2   17.408001    5.708694   26.331564
 O2   14.453882    5.708504   26.331371
 O2   11.499682    5.708402   26.330172
 O2    8.545385    5.708563   26.329218
 O2    5.591427    5.708709   26.329586
 O2    2.637516   18.683992   26.360603
 O2   17.410631   18.683680   26.357237
 O2   14.456114   18.683422   26.348074
 O2   11.499771   18.683294   26.342926
 O2    8.543363   18.683126   26.347002
 O2    5.588534   18.683504   26.356043
 O2    2.637794   12.197145   26.320492
 O2   17.406067   12.197245   26.325043
 O2   14.451607   12.197258   26.332457
 O2   11.498851   12.197634   26.335049
 O2    8.547587   12.197679   26.330542
 O2    7.071292   14.263588   25.241392
 O2    4.113921    7.774761   25.242079
 O2    1.160312    7.773502   25.243792
 O2   15.931107    7.772106   25.243164
 O2   12.977689    7.770074   25.240416
 O2   10.023082    7.769097   25.238323
 O2    7.068007    7.772286   25.239412
 O2    4.113624    1.283393   25.261950
 O2    1.161348    1.283469   25.262342
 O2   15.932650    1.281615   25.259987
 O2   12.977880    1.281934   25.256960
 O2   10.021891    1.281451   25.256485
 O2    7.066739    1.280941   25.259094
 O2    4.115057   14.258977   25.236794
 O2    1.158036   14.259981   25.239864
 O2   15.927976   14.263033   25.247343
 O2   12.976510   14.264890   25.251539
 O2   10.025001   14.266541   25.248486
 O176   12.056149    8.935797   41.224979
 O177    2.570792   17.471781   48.585464
 O176   12.056149    6.546764   41.224979
 O177    4.746591   17.471781   48.585464
 O176    4.282048   17.471781   41.224979
 O177   12.520693    8.935797   48.585464
 O176    2.106249   17.471781   41.224979
 O177   12.520692    6.546764   48.585464
 O171    3.860670   17.471781   51.785725
 O171   12.722671    7.741280   51.785725
 O170    5.430975   14.611597   52.630375
 O170    1.202465   19.137447   50.941074
 O170    6.412258   15.806114   50.941074
 O170    2.396981    0.870963   52.630375
 O170    6.412257   19.137447   50.941074
 O170    1.202465   15.806113   50.941074
 O170    5.430975    0.870963   52.630375
 O170    2.396981   14.611598   52.630375
 O170    4.062648   18.666296   54.985985
 O170   12.301292    7.741281   62.346470
 O170    4.062648   16.277264   54.985985
 O170   14.477091    7.741280   62.346470
 O170   14.012547    7.741281   54.985985
 O170    4.527192   18.666296   62.346470
 O170   11.836749    7.741280   54.985985
 O170    4.527191   16.277264   62.346470
 O170   10.171082    6.075613   52.630375
 O170   14.186358   10.601463   50.941074
 O170   11.152365    4.881097   50.941074
 O170   15.380876    9.406947   52.630375
 O170   14.186359    4.881097   50.941074
 O170   11.152365   10.601463   50.941074
 O170   15.380875    6.075613   52.630375
 O170   10.171082    9.406947   52.630375
 O171   13.591170    7.741280   65.546730
 O171    4.729170   17.471781   65.546730
 O170   15.161475    4.881097   66.391380
 O170   10.932965    9.406947   64.702080
 O170   16.142757    6.075613   64.702080
 O170   12.127481   10.601463   66.391380
 O170   16.142757    9.406947   64.702080
 O170   10.932965    6.075613   64.702080
 O170   15.161476   10.601463   66.391380
 O170   12.127481    4.881097   66.391380
 O170   13.793148    8.935797   68.746986
 O170    4.307792   17.471781   76.107475
 O170   13.793149    6.546764   68.746986
 O170    6.483590   17.471781   76.107475
 O170    6.019047   17.471781   68.746986
 O170   14.257692    8.935797   76.107475
 O170    3.843249   17.471781   68.746986
 O170   14.257691    6.546764   76.107475
 O170    2.177582   15.806114   66.391380
 O170    6.192858    0.870963   64.702080
 O170    3.158864   14.611597   64.702080
 O170    7.387374   19.137447   66.391380
 O170    6.192858   14.611598   64.702080
 O170    3.158864    0.870963   64.702080
 O170    7.387374   15.806113   66.391380
 O170    2.177582   19.137447   66.391380
 O171    5.597670   17.471781   79.307739
 O171   14.459670    7.741280   79.307739
 O170    7.167975   14.611597   80.152390
 O170    2.939465   19.137447   78.463089
 O170    8.149258   15.806114   78.463089
 O170    4.133981    0.870963   80.152390
 O170    8.149257   19.137447   78.463089
 O170    2.939465   15.806113   78.463089
 O170    7.167975    0.870963   80.152390
 O170    4.133981   14.611598   80.152390
 O170    5.799647   18.666296   82.507996
 O173   14.038292    7.741281   89.868484
 O170    5.799648   16.277264   82.507996
 O172   16.214090    7.741280   89.868484
 H21   16.214090    7.741280   90.868484
 O170   15.749547    7.741281   82.507996
 O173    6.264191   18.666296   89.868484
 O170   13.573749    7.741280   82.507996
 O172    6.264190   16.277264   89.868484
 H21    6.264190   16.277264   90.868484
 O170   11.908082    6.075613   80.152390
 O170   15.923358   10.601463   78.463089
 O170   12.889364    4.881097   78.463089
 O170   17.117874    9.406947   80.152390
 O170   15.923359    4.881097   78.463081
 O170   12.889364   10.601463   78.463081
 O170   17.117874    6.075613   80.152390
 O170   11.908082    9.406947   80.152390
 C912   12.241921    9.024149   44.168457
 C912    2.304554   17.471781   45.641987
 C912   12.241920    6.458411   44.168457
 C912    4.641285   17.471781   45.641987
 C912    4.548286   17.471781   44.168457
 C912   12.334920    9.024149   45.641987
 C912    2.211555   17.471781   44.168457
 C912   12.334920    6.458411   45.641987
 C916   12.094676    7.741280   41.835419
 C917    3.620165   17.471781   47.975029
 C916    3.232675   17.471781   41.835419
 C917   12.482164    7.741280   47.975025
 C902   12.195091    7.741280   43.426464
 C902    3.519749   17.471781   46.383980
 C902    3.333091   17.471781   43.426464
 C902   12.381749    7.741280   46.383980
 C912   7.290267   12.486067   52.692852
 C912  16.986708    1.713625   50.878601
 C912   8.344131   13.768936   50.878601
 C912   0.545576    2.996494   52.692852
 C912   8.344131    1.713625   50.878601
 C912  16.986708   13.768936   50.878601
 C912   7.290267    2.996494   52.692852
 C912   0.545576   12.486067   52.692852
 C912    4.248420   18.754648   57.929462
 C912   12.035053    7.741280   59.402992
 C912    4.248420   16.188911   57.929462
 C912   14.371786    7.741280   59.402992
 C912   14.278787    7.741280   57.929462
 C912    4.341419   18.754648   59.402992
 C912   11.942055    7.741280   57.929462
 C912    4.341419   16.188911   59.402992
 C912    8.239210    4.038435   52.692852
 C912   16.037766   12.726994   50.878601
 C912    9.293073    2.755566   50.878601
 C912   17.320633   11.444125   52.692852
 C912   16.037766    2.755566   50.878601
 C912    9.293073   12.726994   50.878601
 C912   17.320633    4.038435   52.692852
 C912    8.239210   11.444125   52.692852
 C913    6.314735   14.777210   51.785725
 C913    1.406605    0.705350   51.785725
 C913    6.314735    0.705350   51.785725
 C913    1.406604   14.777210   51.785725
 C913    4.101175   17.471781   55.596424
 C913   13.350665    7.741280   61.736034
 C913   12.963175    7.741280   55.596424
 C913    4.488664   17.471781   61.736031
 C913   10.268604    5.046710   51.785725
 C913   15.176736   10.435850   51.785725
 C913   15.176735    5.046710   51.785725
 C913   10.268604   10.435851   51.785725
 C902   7.339359   13.652170   51.785725
 C902   0.381980    1.830390   51.785725
 C902   7.339359    1.830390   51.785725
 C902   0.381980   13.652170   51.785725
 C902    4.201591   17.471781   57.187469
 C902   13.250249    7.741281   60.144985
 C902   13.063591    7.741280   57.187469
 C902    4.388249   17.471781   60.144985
 C902    9.243980    3.921670   51.785725
 C902   16.201361   11.560890   51.785725
 C902   16.201361    3.921670   51.785725
 C902    9.243980   11.560890   51.785725
 C912  17.020767    2.755567   66.453857
 C912   8.993207   11.444125   64.639603
 C912   0.350629    4.038435   64.639603
 C912  10.276075   12.726994   66.453857
 C912   0.350630   11.444125   64.639603
 C912   8.993207    4.038435   64.639603
 C912  17.020767   12.726994   66.453857
 C912  10.276075    2.755566   66.453857
 C912   13.978921    9.024149   71.690468
 C912    4.041553   17.471781   73.163994
 C912   13.978920    6.458411   71.690468
 C912    6.378285   17.471781   73.163994
 C912    6.285286   17.471781   71.690468
 C912   14.071919    9.024149   73.163994
 C912    3.948554   17.471781   71.690468
 C912   14.071919    6.458411   73.163994
 C912    0.245709   13.768936   66.453857
 C912    8.044264    2.996494   64.639603
 C912    1.299572   12.486067   64.639603
 C912    9.327133    1.713625   66.453857
 C912    8.044264   12.486067   64.639603
 C912    1.299572    2.996494   64.639603
 C912    9.327133   13.768936   66.453857
 C912    0.245709    1.713625   66.453857
 C913  16.045235    5.046710   65.546730
 C913   11.137105   10.435850   65.546730
 C913   16.045235   10.435850   65.546730
 C913   11.137105    5.046710   65.546730
 C913   13.831676    7.741280   69.357430
 C913    5.357164   17.471781   75.497040
 C913    4.969674   17.471781   69.357430
 C913   14.219164    7.741280   75.497040
 C913    2.275104   14.777209   65.546730
 C913    7.183235    0.705350   65.546730
 C913    7.183234   14.777209   65.546730
 C913    2.275104    0.705351   65.546730
 C902  17.069859    3.921670   65.546730
 C902  10.112480   11.560890   65.546730
 C902  17.069859   11.560890   65.546730
 C902  10.112481    3.921670   65.546730
 C902   13.932091    7.741280   70.948479
 C902    5.256749   17.471781   73.905991
 C902    5.070090   17.471781   70.948479
 C902   14.118749    7.741280   73.905991
 C902    1.250480   13.652170   65.546730
 C902    8.207859    1.830390   65.546730
 C902    8.207859   13.652170   65.546730