opti  fix molmec phon pot prop comp conv  
cell
  17.724000  19.461000  130.0  90.000000  90.000000  90.000000
Cart
Ti    5.671680   14.271398   38.971210
Ti    2.636938    7.769238   39.206482
Ti   17.404776    7.779805   39.206573
Ti   14.446137    7.782115   39.214752
Ti   11.525396    7.772422   39.030144
Ti    8.528190    7.785354   39.060452
Ti    5.602507    7.773148   39.211800
Ti    2.634300    1.281199   39.148998
Ti   17.408178    1.282172   39.201176
Ti   14.454916    1.288474   39.203255
Ti   11.501281    1.279247   39.194706
Ti    8.540341    1.282577   39.196636
Ti    5.590742    1.281059   39.198612
Ti    2.550390   14.271619   38.899372
Ti   17.393591   14.268024   39.216118
Ti   14.454226   14.258836   39.214005
Ti   11.505208   14.245590   39.213612
Ti    8.561197   14.242058   39.223454
Ti    1.159524    4.520008   38.954357
Ti   15.924949    4.532373   38.957317
Ti   12.969367    4.541615   38.948666
Ti   15.944921   17.501930   38.956226
Ti   10.015368   17.482069   38.957119
Ti    7.051125   17.501940   38.959026
Ti   15.926026   11.022360   38.943398
Ti   10.022411   10.993735   39.106865
Ti    7.071258   11.034860   38.925755
Ti    4.120637    4.513121   38.950737
Ti   10.023377    4.489732   38.983158
Ti    7.077064    4.544118   38.953411
Ti    4.094393   17.531870   39.124516
Ti    1.171496   17.510847   39.132996
Ti   12.980844   17.499178   38.961472
Ti    4.119022   10.974085   38.900951
Ti    1.160041   11.039873   38.945236
Ti   12.973346   11.024964   38.921333
Ti    5.591552   11.017071   35.790840
Ti    2.637796    4.530023   35.835560
Ti   17.406260    4.531206   35.835594
Ti   14.454546    4.528491   35.826885
Ti   11.498477    4.524529   35.840984
Ti    8.547149    4.524564   35.841824
Ti    5.591573    4.528867   35.825451
Ti    2.635892   17.508133   35.999195
Ti   17.410330   17.505655   35.890869
Ti   14.451928   17.501999   35.836849
Ti   11.499776   17.497816   35.840469
Ti    8.547787   17.499216   35.830841
Ti    5.587741   17.505131   35.891342
Ti    2.633822   11.016063   35.809052
Ti   17.405539   11.015352   35.819607
Ti   14.456691   11.018820   35.809513
Ti   11.493863   11.009860   35.887119
Ti    8.553574   11.009194   35.883327
Ti    7.098047   14.252423   35.860001
Ti    4.111463    7.772344   35.920116
Ti    1.160941    7.769355   35.923008
Ti   15.934496    7.773558   35.923130
Ti   12.992249    7.765361   35.882423
Ti   10.021068    7.765546   35.884254
Ti    7.055627    7.761641   35.888519
Ti    4.116973    1.288172   35.921696
Ti    1.157928    1.288680   35.922844
Ti   15.929526    1.286240   35.927040
Ti   12.976357    1.281059   35.924561
Ti   10.022108    1.280826   35.923138
Ti    7.068746    1.283957   35.924313
Ti    4.117074   14.264012   35.866917
Ti    1.126660   14.262152   35.846581
Ti   15.921235   14.261288   35.924671
Ti   12.976575   14.253386   35.928425
Ti   10.031603   14.252892   35.933212
 O2    6.992347   14.212757   40.150368
 O2    4.124453    7.840055   40.208717
 O2    1.161431    7.794138   40.211540
 O2   15.921456    7.792974   40.217274
 O2   12.902507    7.795475   40.176903
 O3   10.050580    4.496464   40.897701
 H22   10.047665    3.891476   41.650356
 O2    7.133091    7.794416   40.182930
 O2    4.102401    1.321256   40.179737
 O2    1.172701    1.348571   40.182903
 O2   15.927722    1.335412   40.208904
 O2   12.973711    1.281106   40.205750
 O2   10.021584    1.322492   40.196693
 O2    7.069674    1.301011   40.207737
 O3    4.095407   14.272711   40.183418
 H22    4.026925   14.520306   41.116657
 O2    1.255733   14.167639   40.107719
 O2   15.932041   14.211582   40.229527
 O2   12.979863   14.266215   40.220139
 O2   10.024517   14.270940   40.227562
 O2    2.641794    3.365387   39.088551
 O2   17.395042    3.368886   39.112930
 O2   14.439874    3.365457   39.113960
 O2   11.524269    3.349028   39.083828
 O2    8.524810    3.353907   39.084801
 O2    5.609694    3.368627   39.118637
 O2    2.675689   16.172520   38.903938
 O2   17.369057   16.268841   39.109566
 O2   14.457183   16.314688   39.135868
 O2   11.499214   16.314457   39.126396
 O2    8.522658   16.298752   39.146801
 O2    5.612677   16.225269   39.076897
 O2   17.410810    9.845572   39.112690
 O2    8.459321    9.769438   38.927513
 O2    5.605398    9.853393   39.118191
 O2    2.627746    9.863108   39.114731
 O2   14.451942    9.830134   39.122482
 O2   11.579802    9.757877   38.926750
 O2    5.539023   12.243837   39.112312
 O2    2.648854    5.720958   39.136314
 O2   17.407263    5.723533   39.129227
 O2   14.442132    5.726006   39.151848
 O2   11.476688    5.756498   39.103592
 O2    8.569797    5.759787   39.115959
 O2    5.593923    5.728437   39.151890
 O2   17.358387   18.716179   39.097610
 O2    8.550596   18.669722   39.133484
 O2    5.637430   18.696465   39.102409
 O2    2.698949   12.241142   39.073429
 O2   17.410528   12.197475   39.124947
 O2   14.452738   12.194070   39.118053
 O2   11.523144   12.198949   39.119308
 O2    8.508229   12.207654   39.131237
 O2    2.639595   18.763931   38.924732
 O2   14.450832   18.682369   39.131752
 O2   11.490250   18.674559   39.127037
 O2    7.123263   14.230334   37.770084
 O2    4.118111    7.795631   37.837948
 O2    1.167670    7.776756   37.835461
 O2   15.930654    7.776026   37.838070
 O2   13.017211    7.719359   37.791924
 O2   10.018127    7.719091   37.846539
 O2    7.031004    7.724491   37.800335
 O2    4.147318    1.348774   37.810162
 O2    1.134001    1.348610   37.809998
 O2   15.910445    1.300602   37.828621
 O2   12.973957    1.274927   37.829914
 O2   10.021670    1.277410   37.828327
 O2    7.081254    1.282661   37.826611
 O2    4.140617   14.192399   37.894596
 O2    1.076905   14.188760   37.740650
 O2   15.912054   14.241700   37.837803
 O2   12.978734   14.252519   37.839039
 O2   10.022717   14.269911   37.847336
 O2    7.020108   11.057826   37.066456
 O2    4.123621    4.547779   37.081535
 O2    1.160030    4.547105   37.082859
 O2   15.922930    4.546354   37.085491
 O2   12.979149    4.552699   37.081440
 O2   10.022449    4.532562   37.095978
 O2    7.065760    4.556542   37.083931
 O2    4.170785   17.491783   37.156410
 O2    1.110740   17.481556   37.161888
 O2   15.900255   17.494682   37.089363
 O2   12.971522   17.499975   37.090195
 O2   10.019083   17.487995   37.088299
 O2    7.098437   17.482786   37.092915
 O2    4.117951   11.008537   37.051105
 O2    1.170204   11.034592   37.075924
 O2   15.935625   11.016491   37.073357
 O2   13.013588   11.032645   37.062889
 O2   10.016550   11.029092   37.141239
 O2    5.583780   12.997443   35.877567
 O2    5.590476    9.050305   35.865246
 O2    2.640029    6.504475   35.888226
 O2    2.639477    2.570491   35.873631
 O2   17.408283    6.503561   35.885601
 O2   17.398521    2.571526   35.870781
 O2   14.463605    6.496811   35.854713
 O2   14.446075    2.565956   35.882210
 O2   11.496123    6.502545   35.885094
 O2   11.498482    2.561153   35.888767
 O2    8.548092    6.502356   35.882366
 O2    8.548048    2.562901   35.885731
 O2    5.581600    6.500009   35.860466
 O2    5.603319    2.570164   35.868549
 O2    2.639692    0.019558   35.912426
 O2    2.641835   15.495317   35.947956
 O2   17.403872    0.016361   35.887650
 O2   17.390705   15.527405   35.856232
 O2   14.448986    0.011717   35.880554
 O2   14.444818   15.529453   35.883438
 O2   11.496751    0.006763   35.886433
 O2   11.500976   15.528628   35.888844
 O2    8.546591    0.006420   35.879406
 O2    8.556730   15.527286   35.855659
 O2    5.597668    0.012523   35.885059
 O2    5.595600   15.501959   35.920811
 O2    2.645761   12.996319   35.896439
 O2    2.637539    9.053088   35.881680
 O2   17.391621   12.973605   35.830326
 O2   17.414803    9.050552   35.886124
 O2   14.455182   12.983146   35.867836
 O2   14.458031    9.045502   35.867588
 O2   11.499689   12.980491   35.897221
 O2   11.495939    9.025969   35.908867
 O2    8.557178   12.976254   35.863083
 O2    8.541717    9.030879   35.906292
 O2    7.087119   11.011814   34.626640
 O2    4.112404    4.532940   34.624943
 O2    1.160841    4.538971   34.628193
 O2   15.931818    4.531210   34.625500
 O2   12.970232    4.533689   34.627651
 O2   10.022780    4.535962   34.633762
 O2    7.075656    4.538068   34.628075
 O2    4.095393   17.473967   34.698814
 O2    1.186078   17.485794   34.698082
 O2   15.939386   17.505207   34.645050
 O2   12.974099   17.501167   34.632538
 O2   10.025326   17.503145   34.630638
 O2    7.051950   17.485271   34.647297
 O2    4.109579   11.031034   34.605831
 O2    1.162772   11.023104   34.614841
 O2   15.931522   11.002967   34.612946
 O2   12.957157   11.000139   34.630253
 O2   10.024526   10.988726   34.661003
 O176    10.033731   10.274347   40.791531
 O170     1.327737   18.052464   47.827175
 O176    10.039865    8.096454   40.302704
 O170     3.526853   17.991529   47.895294
 O176     3.770267   17.392202   40.907589
 O170    10.967867    9.478984   47.499584
 O176     1.559955   17.469019   40.882359
 O170    11.015553    7.281442   47.386356
 O171     2.330873   18.103422   50.794495
 O171    11.190130    8.370653   50.372253
 O170     3.847267   15.359859   51.559505
 O170    17.385582    0.259637   49.919231
 O170     5.055943   16.496922   50.134319
 O170     0.759993    1.367992   51.452148
 O170     5.025640    0.255377   50.038898
 O170    17.369102   16.492140   49.950916
 O170     3.863841    1.379479   51.512554
 O170     0.754821   15.385643   51.477200
 O170     2.269845   19.226400   53.719208
 O173    10.143684    8.207219   60.202950
 O170     2.254573   17.025112   53.728062
 O172    12.424742    8.221033   60.205318
 H21     12.364027    8.203896   61.161076
 O170    12.332522    8.335866   53.303799
 O172     2.089653   19.284107   60.619293
 H21      2.063235   19.218725   61.574528
 O170    10.131574    8.322722   53.324635
 O173     2.073924   17.003164   60.605873
 O170     8.498328    6.751854   51.168255
 O170    12.756823   11.079412   49.606430
 O170     9.658090    5.631120   49.690193
 O170    13.877573    9.984178   51.132221
 O170    12.756854    5.681869   49.561321
 O170     9.669344   11.144758   49.796429
 O170    13.886548    6.751064   51.099945
 O170     8.498183    9.966447   51.218895
 C912    10.381197    9.933299   43.453709
 C912     1.336019   17.859995   45.018360
 C912    10.419505    7.556952   43.180756
 C912     3.726147   17.793392   45.120209
 C912     3.785008   17.674883   43.750973
 C912    10.577772    9.785372   44.804287
 C912     1.394760   17.746077   43.649776
 C912    10.612231    7.410107   44.539410
 C916    10.110034    9.062093   41.159248
 C913     2.445630   17.983715   47.249500
 C916     2.657552   17.495552   41.520496
 C913    10.908394    8.409737   46.835869
 C902    10.307603    8.823929   42.639584
 C902     2.502794   17.877020   45.748890
 C902     2.616699   17.644505   43.020107
 C902    10.693558    8.526516   45.346336
 C912     5.656803   13.154719   51.508858
 C912    15.451886    2.406641   49.686092
 C912     6.983136   14.378555   49.957626
 C912    16.689989    3.559699   51.357601
 C912     6.956138    2.378249   49.833534
 C912    15.438413   14.341823   49.733231
 C912     5.673339    3.577338   51.439362
 C912    16.690132   13.190644   51.396133
 C912     2.201262   19.335102   56.521286
 C912    10.076347    8.256596   57.504745
 C912     2.184456   16.942476   56.532520
 C912    12.471090    8.271412   57.481762
 C912    12.455702    8.293747   56.106125
 C912     2.165788   19.343695   57.896690
 C912    10.063138    8.279250   56.129406
 C912     2.148709   16.948898   57.907631
 C912     6.570221    4.627888   51.374733
 C912    14.552575   13.280815   49.672180
 C912     7.851627    3.429888   49.766933
 C912    15.805008   12.129508   51.334492
 C912    14.562670    3.465052   49.619473
 C912     7.876219   13.325509   49.895386
 C912    15.800668    4.616715   51.292080
 C912     6.550968   12.101025   51.447041
 C913     4.866686   15.457230   50.823982
 C913    17.518692    1.284405   50.644691
 C913     4.859967    1.288581   50.744495
 C913    17.508097   15.468375   50.676624
 C913     2.247419   18.128323   54.336517
 C914    11.286163    8.224078   59.684441
 C913    11.237915    8.320247   53.927082
 C914     2.096606   18.148056   60.092941
 C913     8.664110    5.719467   50.461327
 C913    13.733644   11.003251   50.400642
 C913    13.734891    5.742213   50.356087
 C913     8.666037   11.023713   50.550087
 C902     5.863718   14.299707   50.762424
 C902    16.524061    2.445251   50.557285
 C902     5.858355    2.444633   50.669613
 C902    16.516047   14.305146   50.597080
 C902     2.209990   18.135378   55.843662
 C902    11.280020    8.251826   58.177315
 C902    11.252627    8.297123   55.434441
 C902     2.138587   18.149225   58.586113
 C902     7.667002    4.562339   50.537258
 C902    14.726110   12.166781   50.472481
 C902    14.726954    4.577766   50.423756
 C902     7.667503   12.178413   50.636829
 H915    10.291068   10.920067   43.016132
 H915     0.385823   17.934248   45.532001
 H915    10.362496    6.685011   42.543133
 H915     4.628757   17.816750   45.717770
 H915     4.737544   17.607944   43.242161
 H915    10.643615   10.647080   45.457195
 H915     0.489523   17.729536   43.056828
 H915    10.706152    6.428011   44.985775
 H915     4.779745   13.094604   52.140747
 H915    15.318192    1.536656   49.055832
 H915     7.147891   15.275462   49.374153
 H915    17.530432    3.590761   52.039379
 H915     7.102929    1.491925   49.229465
 H915    15.297595   15.212214   49.105099
 H915     4.813037    3.628745   52.094597
 H915    17.535023   13.162025   52.072540
 H915     2.222421    0.798713   55.957901
 H915     9.149916    8.241909   58.066292
 H915     2.192464   16.011530   55.979382
 H915    13.410252    8.268317   58.021008
 H915    13.377481    8.308691   55.537918
 H915     2.158356    0.819189   58.440506
 H915     9.129491    8.282839   55.580795
 H915     2.127876   16.019691   58.464375
 H915     6.423376    5.514124   51.978878
 H915    13.707403   13.310335   48.996231
 H915     8.711477    3.378381   49.111115
 H915    15.945657   11.259459   51.963070
 H915    13.722477    3.432957   48.937496
 H915     8.753092   13.385074   49.263157
 H915    15.933775    5.486589   51.922581
 H915     6.385231   11.204309   52.030430
Zn172    2.295715   16.449566   51.916248
Zn172    0.692257   18.100958   49.616245
Zn172    4.027357   18.088110   49.717598
Zn172    2.305690    0.307645   51.895294
Zn172   12.866851    8.356592   51.478436
Zn172   11.165998   10.042193   49.297596
Zn172    9.533314    8.348646   51.521873
Zn172   11.173876    6.725463   49.217804
space
  1
