# 
# Keywords:
# 
opti rfo fix molmec phon pot prop comp conv  
# 
# Options:
# 
cell
  17.724000  19.461000 114.868482  90.000000  90.000000  90.000000
fractional  1   
Ti    core 0.3200000 0.7333332 0.3392681 2.43599999 1.00000 0.00000             
Ti    core 0.1547330 0.3995403 0.3400472 2.43599999 1.00000 0.00000             
Ti    core 0.9878821 0.3995180 0.3399961 2.43599999 1.00000 0.00000             
Ti    core 0.8210313 0.3993738 0.3400457 2.43599999 1.00000 0.00000             
Ti    core 0.6558751 0.3989587 0.3384837 2.43599999 1.00000 0.00000             
Ti    core 0.4868932 0.3998631 0.3389811 2.43599999 1.00000 0.00000             
Ti    core 0.3214847 0.3997131 0.3401357 2.43599999 1.00000 0.00000             
Ti    core 0.1546196 0.0656865 0.3395057 2.43599999 1.00000 0.00000             
Ti    core 0.9882598 0.0656052 0.3399482 2.43599999 1.00000 0.00000             
Ti    core 0.8215435 0.0662130 0.3399146 2.43599999 1.00000 0.00000             
Ti    core 0.6543607 0.0657635 0.3398244 2.43599999 1.00000 0.00000             
Ti    core 0.4873215 0.0657205 0.3398749 2.43599999 1.00000 0.00000             
Ti    core 0.3209802 0.0656829 0.3399325 2.43599999 1.00000 0.00000             
Ti    core 0.1544287 0.7330803 0.3394258 2.43599999 1.00000 0.00000             
Ti    core 0.9890020 0.7329419 0.3400384 2.43599999 1.00000 0.00000             
Ti    core 0.8258578 0.7327094 0.3378761 2.43599999 1.00000 0.00000             
Ti    core 0.6494461 0.7315030 0.3378267 2.43599999 1.00000 0.00000             
Ti    core 0.4859665 0.7317043 0.3399662 2.43599999 1.00000 0.00000             
Ti    core 0.0710074 0.2320530 0.3377960 2.43599999 1.00000 0.00000             
Ti    core 0.9041007 0.2326085 0.3378058 2.43599999 1.00000 0.00000             
Ti    core 0.7374734 0.2331357 0.3377062 2.43599999 1.00000 0.00000             
Ti    core 0.9056265 0.8993437 0.3377878 2.43599999 1.00000 0.00000             
Ti    core 0.5705589 0.8981211 0.3377089 2.43599999 1.00000 0.00000             
Ti    core 0.4033475 0.8991488 0.3377550 2.43599999 1.00000 0.00000             
Ti    core 0.9042211 0.5660556 0.3376249 2.43599999 1.00000 0.00000             
Ti    core 0.5714389 0.5641392 0.3393238 2.43599999 1.00000 0.00000             
Ti    core 0.4048357 0.5666397 0.3375167 2.43599999 1.00000 0.00000             
Ti    core 0.2381923 0.2319957 0.3378233 2.43599999 1.00000 0.00000             
Ti    core 0.5714547 0.2305663 0.3380685 2.43599999 1.00000 0.00000             
Ti    core 0.4051531 0.2334241 0.3378203 2.43599999 1.00000 0.00000             
Ti    core 0.2367419 0.8993557 0.3392678 2.43599999 1.00000 0.00000             
Ti    core 0.0722632 0.8995145 0.3394398 2.43599999 1.00000 0.00000             
Ti    core 0.7380015 0.9013089 0.3374680 2.43599999 1.00000 0.00000             
Ti    core 0.2380597 0.5669733 0.3376364 2.43599999 1.00000 0.00000             
Ti    core 0.0709999 0.5668699 0.3376808 2.43599999 1.00000 0.00000             
Ti    core 0.7376470 0.5641694 0.3372058 2.43599999 1.00000 0.00000             
Ti    core 0.3210302 0.5659719 0.3104335 2.43599999 1.00000 0.00000             
Ti    core 0.1545042 0.2325607 0.3107026 2.43599999 1.00000 0.00000             
Ti    core 0.9877622 0.2326299 0.3106357 2.43599999 1.00000 0.00000             
Ti    core 0.8212014 0.2324509 0.3105182 2.43599999 1.00000 0.00000             
Ti    core 0.6544353 0.2322667 0.3106663 2.43599999 1.00000 0.00000             
Ti    core 0.4879140 0.2323403 0.3107111 2.43599999 1.00000 0.00000             
Ti    core 0.3212003 0.2325757 0.3106295 2.43599999 1.00000 0.00000             
Ti    core 0.1542327 0.8993152 0.3121408 2.43599999 1.00000 0.00000             
Ti    core 0.9881180 0.8992875 0.3110934 2.43599999 1.00000 0.00000             
Ti    core 0.8211720 0.8992133 0.3104457 2.43599999 1.00000 0.00000             
Ti    core 0.6542828 0.8990345 0.3104391 2.43599999 1.00000 0.00000             
Ti    core 0.4876181 0.8990459 0.3104938 2.43599999 1.00000 0.00000             
Ti    core 0.3207221 0.8991732 0.3111315 2.43599999 1.00000 0.00000             
Ti    core 0.1543931 0.5659186 0.3105599 2.43599999 1.00000 0.00000             
Ti    core 0.9879139 0.5657973 0.3104514 2.43599999 1.00000 0.00000             
Ti    core 0.8213870 0.5659345 0.3102217 2.43599999 1.00000 0.00000             
Ti    core 0.6539322 0.5653600 0.3109742 2.43599999 1.00000 0.00000             
Ti    core 0.4881927 0.5656215 0.3110226 2.43599999 1.00000 0.00000             
Ti    core 0.4040390 0.7322529 0.3111637 2.43599999 1.00000 0.00000             
Ti    core 0.2376449 0.3992780 0.3114649 2.43599999 1.00000 0.00000             
Ti    core 0.0711054 0.3992147 0.3114305 2.43599999 1.00000 0.00000             
Ti    core 0.9046063 0.3990639 0.3113932 2.43599999 1.00000 0.00000             
Ti    core 0.7386553 0.3986558 0.3110342 2.43599999 1.00000 0.00000             
Ti    core 0.5710204 0.3986316 0.3111431 2.43599999 1.00000 0.00000             
Ti    core 0.4038673 0.3989587 0.3112121 2.43599999 1.00000 0.00000             
Ti    core 0.2379444 0.0657468 0.3114082 2.43599999 1.00000 0.00000             
Ti    core 0.0709517 0.0658119 0.3114110 2.43599999 1.00000 0.00000             
Ti    core 0.9044006 0.0660728 0.3114052 2.43599999 1.00000 0.00000             
Ti    core 0.7378062 0.0656704 0.3113435 2.43599999 1.00000 0.00000             
Ti    core 0.5711493 0.0657949 0.3113555 2.43599999 1.00000 0.00000             
Ti    core 0.4045229 0.0656841 0.3114028 2.43599999 1.00000 0.00000             
Ti    core 0.2375663 0.7328405 0.3111191 2.43599999 1.00000 0.00000             
Ti    core 0.0713413 0.7327032 0.3113066 2.43599999 1.00000 0.00000             
Ti    core 0.9060359 0.7325889 0.3107427 2.43599999 1.00000 0.00000             
Ti    core 0.7377391 0.7322022 0.3108258 2.43599999 1.00000 0.00000             
Ti    core 0.5694522 0.7322738 0.3107637 2.43599999 1.00000 0.00000             
Ti    core 0.3210290 0.7324364 0.2834697 2.43599999 1.00000 0.00000             
Ti    core 0.1544342 0.3991460 0.2835794 2.43599999 1.00000 0.00000             
Ti    core 0.9878400 0.3991300 0.2835441 2.43599999 1.00000 0.00000             
Ti    core 0.8212577 0.3990826 0.2834510 2.43599999 1.00000 0.00000             
Ti    core 0.6544013 0.3990632 0.2833346 2.43599999 1.00000 0.00000             
Ti    core 0.4877918 0.3990829 0.2834039 2.43599999 1.00000 0.00000             
Ti    core 0.3210321 0.3991313 0.2835524 2.43599999 1.00000 0.00000             
Ti    core 0.1544550 0.0657765 0.2836634 2.43599999 1.00000 0.00000             
Ti    core 0.9878044 0.0657626 0.2836509 2.43599999 1.00000 0.00000             
Ti    core 0.8211254 0.0657289 0.2835751 2.43599999 1.00000 0.00000             
Ti    core 0.6544541 0.0657394 0.2835293 2.43599999 1.00000 0.00000             
Ti    core 0.4878049 0.0657265 0.2835843 2.43599999 1.00000 0.00000             
Ti    core 0.3211168 0.0657458 0.2836642 2.43599999 1.00000 0.00000             
Ti    core 0.1543801 0.7325158 0.2834731 2.43599999 1.00000 0.00000             
Ti    core 0.9880323 0.7325176 0.2833627 2.43599999 1.00000 0.00000             
Ti    core 0.8210741 0.7324078 0.2831324 2.43599999 1.00000 0.00000             
Ti    core 0.6544060 0.7323858 0.2830940 2.43599999 1.00000 0.00000             
Ti    core 0.4876071 0.7324205 0.2833119 2.43599999 1.00000 0.00000             
Ti    core 0.4047445 0.5656843 0.2835928 2.43599999 1.00000 0.00000             
Ti    core 0.2377769 0.2324271 0.2836148 2.43599999 1.00000 0.00000             
Ti    core 0.0711675 0.2324539 0.2836037 2.43599999 1.00000 0.00000             
Ti    core 0.9045218 0.2324068 0.2835491 2.43599999 1.00000 0.00000             
Ti    core 0.7377423 0.2324389 0.2835355 2.43599999 1.00000 0.00000             
Ti    core 0.5711121 0.2324224 0.2835864 2.43599999 1.00000 0.00000             
Ti    core 0.4044986 0.2324508 0.2836058 2.43599999 1.00000 0.00000             
Ti    core 0.2372667 0.8991186 0.2841242 2.43599999 1.00000 0.00000             
Ti    core 0.0716249 0.8991834 0.2841120 2.43599999 1.00000 0.00000             
Ti    core 0.9049718 0.8990672 0.2836531 2.43599999 1.00000 0.00000             
Ti    core 0.7378569 0.8990745 0.2834387 2.43599999 1.00000 0.00000             
Ti    core 0.5709114 0.8990363 0.2834631 2.43599999 1.00000 0.00000             
Ti    core 0.4038781 0.8991081 0.2836988 2.43599999 1.00000 0.00000             
Ti    core 0.2377980 0.5657633 0.2834777 2.43599999 1.00000 0.00000             
Ti    core 0.0712161 0.5657918 0.2834594 2.43599999 1.00000 0.00000             
Ti    core 0.9045477 0.5657526 0.2833630 2.43599999 1.00000 0.00000             
Ti    core 0.7373962 0.5656620 0.2834713 2.43599999 1.00000 0.00000             
Ti    core 0.5710621 0.5657057 0.2836839 2.43599999 1.00000 0.00000             
Ti    core 0.3212248 0.5657390 0.2564804 2.43599999 1.00000 0.00000             
Ti    core 0.1544637 0.2324571 0.2565661 2.43599999 1.00000 0.00000             
Ti    core 0.9877913 0.2324445 0.2565303 2.43599999 1.00000 0.00000             
Ti    core 0.8211032 0.2324182 0.2564885 2.43599999 1.00000 0.00000             
Ti    core 0.6544230 0.2323899 0.2564944 2.43599999 1.00000 0.00000             
Ti    core 0.4877816 0.2323989 0.2565318 2.43599999 1.00000 0.00000             
Ti    core 0.3211367 0.2324319 0.2565588 2.43599999 1.00000 0.00000             
Ti    core 0.1544332 0.8991016 0.2569324 2.43599999 1.00000 0.00000             
Ti    core 0.9880081 0.8991092 0.2567346 2.43599999 1.00000 0.00000             
Ti    core 0.8212661 0.8991035 0.2564740 2.43599999 1.00000 0.00000             
Ti    core 0.6544346 0.8990993 0.2564020 2.43599999 1.00000 0.00000             
Ti    core 0.4876024 0.8990875 0.2565201 2.43599999 1.00000 0.00000             
Ti    core 0.3208633 0.8990891 0.2567762 2.43599999 1.00000 0.00000             
Ti    core 0.1544775 0.5657407 0.2564389 2.43599999 1.00000 0.00000             
Ti    core 0.9877760 0.5657591 0.2563748 2.43599999 1.00000 0.00000             
Ti    core 0.8210152 0.5657656 0.2563490 2.43599999 1.00000 0.00000             
Ti    core 0.6543499 0.5657624 0.2564588 2.43599999 1.00000 0.00000             
Ti    core 0.4878624 0.5657517 0.2565255 2.43599999 1.00000 0.00000             
Ti    core 0.4042975 0.7324374 0.2556223 2.43599999 1.00000 0.00000             
Ti    core 0.2377654 0.3990984 0.2557325 2.43599999 1.00000 0.00000             
Ti    core 0.0711335 0.3991005 0.2557289 2.43599999 1.00000 0.00000             
Ti    core 0.9044963 0.3990944 0.2556787 2.43599999 1.00000 0.00000             
Ti    core 0.7378205 0.3990705 0.2556266 2.43599999 1.00000 0.00000             
Ti    core 0.5710687 0.3990580 0.2556260 2.43599999 1.00000 0.00000             
Ti    core 0.4043780 0.3990845 0.2556873 2.43599999 1.00000 0.00000             
Ti    core 0.2377665 0.0657715 0.2558608 2.43599999 1.00000 0.00000             
Ti    core 0.0711614 0.0657646 0.2558562 2.43599999 1.00000 0.00000             
Ti    core 0.9045316 0.0657539 0.2557943 2.43599999 1.00000 0.00000             
Ti    core 0.7378194 0.0657462 0.2557378 2.43599999 1.00000 0.00000             
Ti    core 0.5710668 0.0657225 0.2557441 2.43599999 1.00000 0.00000             
Ti    core 0.4043710 0.0657226 0.2558054 2.43599999 1.00000 0.00000             
Ti    core 0.2377518 0.7324139 0.2556974 2.43599999 1.00000 0.00000             
Ti    core 0.0712249 0.7324360 0.2556546 2.43599999 1.00000 0.00000             
Ti    core 0.9046174 0.7324566 0.2555299 2.43599999 1.00000 0.00000             
Ti    core 0.7377877 0.7324532 0.2554417 2.43599999 1.00000 0.00000             
Ti    core 0.5709426 0.7324630 0.2555016 2.43599999 1.00000 0.00000             
Ti    core 0.4044842 0.5657782 0.2293250 2.43599999 1.00000 0.00000             
Ti    core 0.3210291 0.7325033 0.2271465 2.43599999 1.00000 0.00000             
Ti    core 0.2377882 0.2323952 0.2293960 2.43599999 1.00000 0.00000             
Ti    core 0.1544880 0.3990554 0.2271834 2.43599999 1.00000 0.00000             
Ti    core 0.0711670 0.2323964 0.2293807 2.43599999 1.00000 0.00000             
Ti    core 0.9878384 0.3990389 0.2271611 2.43599999 1.00000 0.00000             
Ti    core 0.9044963 0.2323794 0.2293406 2.43599999 1.00000 0.00000             
Ti    core 0.8211376 0.3990339 0.2271221 2.43599999 1.00000 0.00000             
Ti    core 0.7377740 0.2323635 0.2293161 2.43599999 1.00000 0.00000             
Ti    core 0.6544229 0.3990381 0.2270986 2.43599999 1.00000 0.00000             
Ti    core 0.5710670 0.2323757 0.2293343 2.43599999 1.00000 0.00000             
Ti    core 0.4877450 0.3990546 0.2271237 2.43599999 1.00000 0.00000             
Ti    core 0.4044120 0.2323945 0.2293742 2.43599999 1.00000 0.00000             
Ti    core 0.3211093 0.3990660 0.2271691 2.43599999 1.00000 0.00000             
Ti    core 0.2376479 0.8991028 0.2296335 2.43599999 1.00000 0.00000             
Ti    core 0.1544755 0.0657092 0.2273283 2.43599999 1.00000 0.00000             
Ti    core 0.0712919 0.8991003 0.2296108 2.43599999 1.00000 0.00000             
Ti    core 0.9879010 0.0657130 0.2272957 2.43599999 1.00000 0.00000             
Ti    core 0.9047138 0.8991291 0.2294074 2.43599999 1.00000 0.00000             
Ti    core 0.8212081 0.0657165 0.2272319 2.43599999 1.00000 0.00000             
Ti    core 0.7378677 0.8991421 0.2292617 2.43599999 1.00000 0.00000             
Ti    core 0.6544266 0.0657201 0.2272015 2.43599999 1.00000 0.00000             
Ti    core 0.5709615 0.8991205 0.2292861 2.43599999 1.00000 0.00000             
Ti    core 0.4876739 0.0657132 0.2272370 2.43599999 1.00000 0.00000             
Ti    core 0.4041720 0.8991100 0.2294543 2.43599999 1.00000 0.00000             
Ti    core 0.3210302 0.0657088 0.2273012 2.43599999 1.00000 0.00000             
Ti    core 0.2378515 0.5657765 0.2292984 2.43599999 1.00000 0.00000             
Ti    core 0.1544868 0.7325020 0.2271600 2.43599999 1.00000 0.00000             
Ti    core 0.0711902 0.5657617 0.2292499 2.43599999 1.00000 0.00000             
Ti    core 0.9879055 0.7325094 0.2270810 2.43599999 1.00000 0.00000             
Ti    core 0.9044610 0.5657478 0.2291981 2.43599999 1.00000 0.00000             
Ti    core 0.8211915 0.7325118 0.2269756 2.43599999 1.00000 0.00000             
Ti    core 0.7376946 0.5657671 0.2292204 2.43599999 1.00000 0.00000             
Ti    core 0.6543926 0.7325137 0.2269573 2.43599999 1.00000 0.00000             
Ti    core 0.5710553 0.5657825 0.2292976 2.43599999 1.00000 0.00000             
Ti    core 0.4876497 0.7325145 0.2270472 2.43599999 1.00000 0.00000             
O2    core 0.4029846 0.7310788 0.3484800 -1.2179999 1.00000 0.00000             
O2    core 0.2382896 0.3998669 0.3488569 -1.2179999 1.00000 0.00000             
O2    core 0.0709933 0.4001653 0.3487596 -1.2179999 1.00000 0.00000             
O2    core 0.9038428 0.4007565 0.3487882 -1.2179999 1.00000 0.00000             
O2    core 0.7338770 0.4027869 0.3484037 -1.2179999 1.00000 0.00000             
O3    core 0.5769195 0.2306731 0.3547222 -0.3380000 1.00000 0.00000             
H22   core 0.5761359 0.1998853 0.3613111 0.12000000 1.00000 0.00000             
O2    core 0.4080929 0.3996815 0.3486306 -1.2179999 1.00000 0.00000             
O2    core 0.2372519 0.0709088 0.3484728 -1.2179999 1.00000 0.00000             
O2    core 0.0719008 0.0701719 0.3484865 -1.2179999 1.00000 0.00000             
O2    core 0.9042496 0.0678526 0.3486872 -1.2179999 1.00000 0.00000             
O2    core 0.7376762 0.0627335 0.3485675 -1.2179999 1.00000 0.00000             
O2    core 0.5712646 0.0671270 0.3485691 -1.2179999 1.00000 0.00000             
O2    core 0.4047725 0.0674629 0.3486991 -1.2179999 1.00000 0.00000             
O2    core 0.2375434 0.7277777 0.3481536 -1.2179999 1.00000 0.00000             
O2    core 0.0718533 0.7275055 0.3485607 -1.2179999 1.00000 0.00000             
O2    core 0.8997128 0.7305326 0.3481437 -1.2179999 1.00000 0.00000             
O3    core 0.7375974 0.7325351 0.3488094 -0.3380000 1.00000 0.00000             
H22   core 0.7371542 0.7321376 0.3572339 0.12000000 1.00000 0.00000             
O2    core 0.5750305 0.7328047 0.3480366 -1.2179999 1.00000 0.00000             
O2    core 0.1544293 0.1730306 0.3388475 -1.2179999 1.00000 0.00000             
O2    core 0.9864961 0.1729068 0.3391688 -1.2179999 1.00000 0.00000             
O2    core 0.8199521 0.1724563 0.3392359 -1.2179999 1.00000 0.00000             
O2    core 0.6563988 0.1715829 0.3389497 -1.2179999 1.00000 0.00000             
O2    core 0.4873874 0.1722761 0.3389508 -1.2179999 1.00000 0.00000             
O2    core 0.3226608 0.1732336 0.3391410 -1.2179999 1.00000 0.00000             
O2    core 0.1537236 0.8334071 0.3374045 -1.2179999 1.00000 0.00000             
O2    core 0.9831710 0.8355472 0.3392314 -1.2179999 1.00000 0.00000             
O2    core 0.8175111 0.8349565 0.3392759 -1.2179999 1.00000 0.00000             
O2    core 0.6576717 0.8349192 0.3391660 -1.2179999 1.00000 0.00000             
O2    core 0.4888274 0.8373264 0.3393657 -1.2179999 1.00000 0.00000             
O2    core 0.3239361 0.8364229 0.3386753 -1.2179999 1.00000 0.00000             
O2    core 0.9872585 0.5056554 0.3391413 -1.2179999 1.00000 0.00000             
O2    core 0.4843393 0.5019336 0.3379972 -1.2179999 1.00000 0.00000             
O2    core 0.3215912 0.5050698 0.3393218 -1.2179999 1.00000 0.00000             
O2    core 0.1544569 0.5054460 0.3392171 -1.2179999 1.00000 0.00000             
O2    core 0.8211983 0.5063127 0.3392604 -1.2179999 1.00000 0.00000             
O2    core 0.6585932 0.5019359 0.3373807 -1.2179999 1.00000 0.00000             
O2    core 0.3221014 0.6262287 0.3387454 -1.2179999 1.00000 0.00000             
O2    core 0.1545127 0.2937304 0.3393469 -1.2179999 1.00000 0.00000             
O2    core 0.9870916 0.2939292 0.3393208 -1.2179999 1.00000 0.00000             
O2    core 0.8201325 0.2940906 0.3395671 -1.2179999 1.00000 0.00000             
O2    core 0.6539028 0.2957618 0.3391405 -1.2179999 1.00000 0.00000             
O2    core 0.4901237 0.2958300 0.3393517 -1.2179999 1.00000 0.00000             
O2    core 0.3219180 0.2941770 0.3394826 -1.2179999 1.00000 0.00000             
O2    core 0.9846516 0.9616042 0.3390180 -1.2179999 1.00000 0.00000             
O2    core 0.4885958 0.9591457 0.3392909 -1.2179999 1.00000 0.00000             
O2    core 0.3242212 0.9619829 0.3389693 -1.2179999 1.00000 0.00000             
O2    core 0.1540633 0.6260214 0.3387109 -1.2179999 1.00000 0.00000             
O2    core 0.9854615 0.6266060 0.3392313 -1.2179999 1.00000 0.00000             
O2    core 0.8180006 0.6294020 0.3390955 -1.2179999 1.00000 0.00000             
O2    core 0.6595298 0.6296162 0.3392801 -1.2179999 1.00000 0.00000             
O2    core 0.4882940 0.6267967 0.3393474 -1.2179999 1.00000 0.00000             
O2    core 0.1541976 0.9650511 0.3373914 -1.2179999 1.00000 0.00000             
O2    core 0.8214597 0.9582985 0.3392950 -1.2179999 1.00000 0.00000             
O2    core 0.6535414 0.9578489 0.3392281 -1.2179999 1.00000 0.00000             
O2    core 0.4059066 0.7314321 0.3277303 -1.2179999 1.00000 0.00000             
O2    core 0.2381209 0.3994139 0.3281133 -1.2179999 1.00000 0.00000             
O2    core 0.0706504 0.3994266 0.3280585 -1.2179999 1.00000 0.00000             
O2    core 0.9035566 0.3995139 0.3280895 -1.2179999 1.00000 0.00000             
O2    core 0.7401606 0.3971441 0.3277127 -1.2179999 1.00000 0.00000             
O2    core 0.5710025 0.3965678 0.3283146 -1.2179999 1.00000 0.00000             
O2    core 0.4035508 0.3972880 0.3278581 -1.2179999 1.00000 0.00000             
O2    core 0.2398100 0.0694231 0.3278018 -1.2179999 1.00000 0.00000             
O2    core 0.0688048 0.0693777 0.3278108 -1.2179999 1.00000 0.00000             
O2    core 0.9025014 0.0664519 0.3279757 -1.2179999 1.00000 0.00000             
O2    core 0.7376916 0.0642094 0.3279802 -1.2179999 1.00000 0.00000             
O2    core 0.5719558 0.0652623 0.3279626 -1.2179999 1.00000 0.00000             
O2    core 0.4061990 0.0660383 0.3279371 -1.2179999 1.00000 0.00000             
O2    core 0.2388142 0.7294601 0.3274934 -1.2179999 1.00000 0.00000             
O2    core 0.0685579 0.7291554 0.3278004 -1.2179999 1.00000 0.00000             
O2    core 0.9056731 0.7316450 0.3273559 -1.2179999 1.00000 0.00000             
O2    core 0.7377644 0.7321996 0.3288289 -1.2179999 1.00000 0.00000             
O2    core 0.5687171 0.7331456 0.3273927 -1.2179999 1.00000 0.00000             
O2    core 0.4035739 0.5665208 0.3213197 -1.2179999 1.00000 0.00000             
O2    core 0.2383558 0.2336263 0.3215090 -1.2179999 1.00000 0.00000             
O2    core 0.0705151 0.2334768 0.3214945 -1.2179999 1.00000 0.00000             
O2    core 0.9034851 0.2333388 0.3215227 -1.2179999 1.00000 0.00000             
O2    core 0.7380205 0.2336484 0.3214846 -1.2179999 1.00000 0.00000             
O2    core 0.5716872 0.2327528 0.3216457 -1.2179999 1.00000 0.00000             
O2    core 0.4050170 0.2340618 0.3215369 -1.2179999 1.00000 0.00000             
O2    core 0.2408886 0.8992058 0.3220756 -1.2179999 1.00000 0.00000             
O2    core 0.0669586 0.8987154 0.3221662 -1.2179999 1.00000 0.00000             
O2    core 0.9013805 0.8977214 0.3215579 -1.2179999 1.00000 0.00000             
O2    core 0.7373873 0.8986824 0.3213600 -1.2179999 1.00000 0.00000             
O2    core 0.5722055 0.8974855 0.3214722 -1.2179999 1.00000 0.00000             
O2    core 0.4072651 0.8988044 0.3214860 -1.2179999 1.00000 0.00000             
O2    core 0.2379350 0.5651302 0.3213325 -1.2179999 1.00000 0.00000             
O2    core 0.0701026 0.5657686 0.3213836 -1.2179999 1.00000 0.00000             
O2    core 0.9033097 0.5666536 0.3213809 -1.2179999 1.00000 0.00000             
O2    core 0.7399248 0.5673205 0.3211889 -1.2179999 1.00000 0.00000             
O2    core 0.5720167 0.5674811 0.3220998 -1.2179999 1.00000 0.00000             
O2    core 0.3212995 0.6667368 0.3106477 -1.2179999 1.00000 0.00000             
O2    core 0.3213750 0.4645355 0.3109637 -1.2179999 1.00000 0.00000             
O2    core 0.1543366 0.3339721 0.3111008 -1.2179999 1.00000 0.00000             
O2    core 0.1543825 0.1319069 0.3109509 -1.2179999 1.00000 0.00000             
O2    core 0.9873944 0.3339787 0.3110859 -1.2179999 1.00000 0.00000             
O2    core 0.9868579 0.1319386 0.3109240 -1.2179999 1.00000 0.00000             
O2    core 0.8214087 0.3336675 0.3108405 -1.2179999 1.00000 0.00000             
O2    core 0.8204239 0.1315457 0.3110525 -1.2179999 1.00000 0.00000             
O2    core 0.6544524 0.3340250 0.3111732 -1.2179999 1.00000 0.00000             
O2    core 0.6547079 0.1313176 0.3111175 -1.2179999 1.00000 0.00000             
O2    core 0.4883352 0.3339510 0.3111013 -1.2179999 1.00000 0.00000             
O2    core 0.4884331 0.1315360 0.3110594 -1.2179999 1.00000 0.00000             
O2    core 0.3210170 0.3338256 0.3109104 -1.2179999 1.00000 0.00000             
O2    core 0.3220667 0.1319463 0.3109092 -1.2179999 1.00000 0.00000             
O2    core 0.1542039 0.0010849 0.3112881 -1.2179999 1.00000 0.00000             
O2    core 0.1540743 0.7974236 0.3111426 -1.2179999 1.00000 0.00000             
O2    core 0.9865407 0.0005897 0.3110813 -1.2179999 1.00000 0.00000             
O2    core 0.9873212 0.7977031 0.3107550 -1.2179999 1.00000 0.00000             
O2    core 0.8205956 0.0000311 0.3109807 -1.2179999 1.00000 0.00000             
O2    core 0.8199805 0.7967090 0.3112478 -1.2179999 1.00000 0.00000             
O2    core 0.6545879 0.9998216 0.3110112 -1.2179999 1.00000 0.00000             
O2    core 0.6551194 0.7966957 0.3112487 -1.2179999 1.00000 0.00000             
O2    core 0.4888473 0.0001115 0.3109779 -1.2179999 1.00000 0.00000             
O2    core 0.4879567 0.7978295 0.3105943 -1.2179999 1.00000 0.00000             
O2    core 0.3218862 0.0007188 0.3110359 -1.2179999 1.00000 0.00000             
O2    core 0.3217439 0.7974831 0.3109298 -1.2179999 1.00000 0.00000             
O2    core 0.1541123 0.6665861 0.3107593 -1.2179999 1.00000 0.00000             
O2    core 0.1541696 0.4646411 0.3110753 -1.2179999 1.00000 0.00000             
O2    core 0.9873722 0.6664319 0.3105557 -1.2179999 1.00000 0.00000             
O2    core 0.9870824 0.4648172 0.3110661 -1.2179999 1.00000 0.00000             
O2    core 0.8205546 0.6679832 0.3110862 -1.2179999 1.00000 0.00000             
O2    core 0.8209473 0.4649096 0.3109021 -1.2179999 1.00000 0.00000             
O2    core 0.6549798 0.6679234 0.3114122 -1.2179999 1.00000 0.00000             
O2    core 0.6544914 0.4638447 0.3113100 -1.2179999 1.00000 0.00000             
O2    core 0.4879832 0.6665805 0.3107219 -1.2179999 1.00000 0.00000             
O2    core 0.4887853 0.4639862 0.3112983 -1.2179999 1.00000 0.00000             
O2    core 0.4056882 0.5647550 0.3001173 -1.2179999 1.00000 0.00000             
O2    core 0.2377540 0.2327926 0.3001362 -1.2179999 1.00000 0.00000             
O2    core 0.0710459 0.2330319 0.3001359 -1.2179999 1.00000 0.00000             
O2    core 0.9043817 0.2326332 0.3000997 -1.2179999 1.00000 0.00000             
O2    core 0.7373990 0.2328049 0.3001191 -1.2179999 1.00000 0.00000             
O2    core 0.5713528 0.2329118 0.3001954 -1.2179999 1.00000 0.00000             
O2    core 0.4050351 0.2329659 0.3001555 -1.2179999 1.00000 0.00000             
O2    core 0.2366347 0.8990820 0.3006822 -1.2179999 1.00000 0.00000             
O2    core 0.0719968 0.8994971 0.3006875 -1.2179999 1.00000 0.00000             
O2    core 0.9047115 0.8982925 0.3002184 -1.2179999 1.00000 0.00000             
O2    core 0.7376834 0.8977990 0.3000364 -1.2179999 1.00000 0.00000             
O2    core 0.5714709 0.8983164 0.3000478 -1.2179999 1.00000 0.00000             
O2    core 0.4037496 0.8993129 0.3001985 -1.2179999 1.00000 0.00000             
O2    core 0.2376277 0.5653919 0.2999882 -1.2179999 1.00000 0.00000             
O2    core 0.0710967 0.5650709 0.2999928 -1.2179999 1.00000 0.00000             
O2    core 0.9043031 0.5661662 0.2999412 -1.2179999 1.00000 0.00000             
O2    core 0.7365123 0.5662867 0.3000751 -1.2179999 1.00000 0.00000             
O2    core 0.5716291 0.5654769 0.3004058 -1.2179999 1.00000 0.00000             
O2    core 0.4050093 0.7321719 0.2941584 -1.2179999 1.00000 0.00000             
O2    core 0.2377786 0.3993659 0.2943766 -1.2179999 1.00000 0.00000             
O2    core 0.0708454 0.3993151 0.2943860 -1.2179999 1.00000 0.00000             
O2    core 0.9041777 0.3994173 0.2943346 -1.2179999 1.00000 0.00000             
O2    core 0.7373972 0.3992433 0.2942325 -1.2179999 1.00000 0.00000             
O2    core 0.5714698 0.3991922 0.2942778 -1.2179999 1.00000 0.00000             
O2    core 0.4051224 0.3992362 0.2943050 -1.2179999 1.00000 0.00000             
O2    core 0.2378814 0.0660705 0.2944073 -1.2179999 1.00000 0.00000             
O2    core 0.0708338 0.0660385 0.2944133 -1.2179999 1.00000 0.00000             
O2    core 0.9038908 0.0659875 0.2943873 -1.2179999 1.00000 0.00000             
O2    core 0.7375683 0.0656943 0.2943654 -1.2179999 1.00000 0.00000             
O2    core 0.5715331 0.0658878 0.2943676 -1.2179999 1.00000 0.00000             
O2    core 0.4050556 0.0659394 0.2943822 -1.2179999 1.00000 0.00000             
O2    core 0.2377105 0.7323648 0.2942032 -1.2179999 1.00000 0.00000             
O2    core 0.0707207 0.7322227 0.2942212 -1.2179999 1.00000 0.00000             
O2    core 0.9033412 0.7323636 0.2940487 -1.2179999 1.00000 0.00000             
O2    core 0.7375218 0.7322434 0.2940857 -1.2179999 1.00000 0.00000             
O2    core 0.5721766 0.7321806 0.2940642 -1.2179999 1.00000 0.00000             
O2    core 0.3213622 0.5009241 0.2835372 -1.2179999 1.00000 0.00000             
O2    core 0.3214582 0.6303393 0.2835291 -1.2179999 1.00000 0.00000             
O2    core 0.1543943 0.1678116 0.2835722 -1.2179999 1.00000 0.00000             
O2    core 0.1544255 0.2974270 0.2835538 -1.2179999 1.00000 0.00000             
O2    core 0.9876084 0.1677614 0.2835644 -1.2179999 1.00000 0.00000             
O2    core 0.9875891 0.2974013 0.2835507 -1.2179999 1.00000 0.00000             
O2    core 0.8209000 0.1677263 0.2835872 -1.2179999 1.00000 0.00000             
O2    core 0.8209750 0.2973361 0.2835469 -1.2179999 1.00000 0.00000             
O2    core 0.6544669 0.1676809 0.2835788 -1.2179999 1.00000 0.00000             
O2    core 0.6544554 0.2973662 0.2835317 -1.2179999 1.00000 0.00000             
O2    core 0.4880756 0.1677222 0.2835914 -1.2179999 1.00000 0.00000             
O2    core 0.4880644 0.2973823 0.2835468 -1.2179999 1.00000 0.00000             
O2    core 0.3213702 0.1678152 0.2836027 -1.2179999 1.00000 0.00000             
O2    core 0.3213026 0.2973880 0.2835769 -1.2179999 1.00000 0.00000             
O2    core 0.1542895 0.8340109 0.2836228 -1.2179999 1.00000 0.00000             
O2    core 0.1543918 0.9642323 0.2836859 -1.2179999 1.00000 0.00000             
O2    core 0.9878597 0.8341609 0.2836377 -1.2179999 1.00000 0.00000             
O2    core 0.9877731 0.9638864 0.2837602 -1.2179999 1.00000 0.00000             
O2    core 0.8210422 0.8340995 0.2835122 -1.2179999 1.00000 0.00000             
O2    core 0.8210676 0.9636333 0.2836617 -1.2179999 1.00000 0.00000             
O2    core 0.6545473 0.8340695 0.2834277 -1.2179999 1.00000 0.00000             
O2    core 0.6545189 0.9636765 0.2835735 -1.2179999 1.00000 0.00000             
O2    core 0.4878549 0.8342082 0.2835167 -1.2179999 1.00000 0.00000             
O2    core 0.4879208 0.9637520 0.2836289 -1.2179999 1.00000 0.00000             