opti fix molmec phon pot prop comp conv  
cell
  17.724000  19.461000 114.868482  90.000000  90.000000  90.000000
fractional  1   
Ti    core 0.3200000 0.7333332 0.3392681 2.43599999 1.00000 0.00000             
Ti    core 0.1482157 0.3992644 0.3414825 2.43599999 1.00000 0.00000             
Ti    core 0.9816251 0.3996510 0.3415617 2.43599999 1.00000 0.00000             
Ti    core 0.8164423 0.3999176 0.3402410 2.43599999 1.00000 0.00000             
Ti    core 0.6474398 0.3997195 0.3400897 2.43599999 1.00000 0.00000             
Ti    core 0.4824786 0.3998727 0.3415267 2.43599999 1.00000 0.00000             
Ti    core 0.3156804 0.3992442 0.3414449 2.43599999 1.00000 0.00000             
Ti    core 0.1485156 0.0657498 0.3409542 2.43599999 1.00000 0.00000             
Ti    core 0.9821286 0.0660637 0.3413954 2.43599999 1.00000 0.00000             
Ti    core 0.8157318 0.0659552 0.3413565 2.43599999 1.00000 0.00000             
Ti    core 0.6487006 0.0653766 0.3413830 2.43599999 1.00000 0.00000             
Ti    core 0.4819916 0.0661966 0.3413967 2.43599999 1.00000 0.00000             
Ti    core 0.3152917 0.0658390 0.3413649 2.43599999 1.00000 0.00000             
Ti    core 0.1438549 0.7333340 0.3387620 2.43599999 1.00000 0.00000             
Ti    core 0.9813758 0.7332407 0.3416013 2.43599999 1.00000 0.00000             
Ti    core 0.8155631 0.7318576 0.3415742 2.43599999 1.00000 0.00000             
Ti    core 0.6490208 0.7319959 0.3415238 2.43599999 1.00000 0.00000             
Ti    core 0.4829648 0.7326810 0.3415380 2.43599999 1.00000 0.00000             
Ti    core 0.0649748 0.2322278 0.3393172 2.43599999 1.00000 0.00000             
Ti    core 0.8983131 0.2331597 0.3397925 2.43599999 1.00000 0.00000             
Ti    core 0.7322496 0.2305784 0.3390310 2.43599999 1.00000 0.00000             
Ti    core 0.8997055 0.8993091 0.3393375 2.43599999 1.00000 0.00000             
Ti    core 0.5651424 0.8989771 0.3392843 2.43599999 1.00000 0.00000             
Ti    core 0.3979459 0.8995147 0.3392028 2.43599999 1.00000 0.00000             
Ti    core 0.8985075 0.5665619 0.3390539 2.43599999 1.00000 0.00000             
Ti    core 0.5655380 0.5665885 0.3389823 2.43599999 1.00000 0.00000             
Ti    core 0.3989564 0.5667372 0.3391466 2.43599999 1.00000 0.00000             
Ti    core 0.2320229 0.2319639 0.3392308 2.43599999 1.00000 0.00000             
Ti    core 0.5656178 0.2333931 0.3392008 2.43599999 1.00000 0.00000             
Ti    core 0.3988770 0.2328443 0.3392919 2.43599999 1.00000 0.00000             
Ti    core 0.2313681 0.9008731 0.3405071 2.43599999 1.00000 0.00000             
Ti    core 0.0664237 0.8998420 0.3409587 2.43599999 1.00000 0.00000             
Ti    core 0.7324506 0.8982076 0.3393027 2.43599999 1.00000 0.00000             
Ti    core 0.2321548 0.5637802 0.3388391 2.43599999 1.00000 0.00000             
Ti    core 0.0651754 0.5672114 0.3391528 2.43599999 1.00000 0.00000             
Ti    core 0.7319721 0.5650743 0.3406729 2.43599999 1.00000 0.00000             
Ti    core 0.3155215 0.5659667 0.3118449 2.43599999 1.00000 0.00000             
Ti    core 0.1486854 0.2327749 0.3121240 2.43599999 1.00000 0.00000             
Ti    core 0.9818731 0.2327182 0.3123108 2.43599999 1.00000 0.00000             
Ti    core 0.8155722 0.2325019 0.3122003 2.43599999 1.00000 0.00000             
Ti    core 0.6486341 0.2325369 0.3119308 2.43599999 1.00000 0.00000             
Ti    core 0.4820127 0.2327098 0.3120420 2.43599999 1.00000 0.00000             
Ti    core 0.3154373 0.2328456 0.3120817 2.43599999 1.00000 0.00000             
Ti    core 0.1485637 0.8996426 0.3135066 2.43599999 1.00000 0.00000             
Ti    core 0.9822638 0.8993960 0.3126510 2.43599999 1.00000 0.00000             
Ti    core 0.8153885 0.8991230 0.3121418 2.43599999 1.00000 0.00000             
Ti    core 0.6488117 0.8991060 0.3121354 2.43599999 1.00000 0.00000             
Ti    core 0.4823192 0.8994184 0.3120217 2.43599999 1.00000 0.00000             
Ti    core 0.3152752 0.8996346 0.3124977 2.43599999 1.00000 0.00000             
Ti    core 0.1486197 0.5660374 0.3118882 2.43599999 1.00000 0.00000             
Ti    core 0.9820421 0.5661237 0.3118712 2.43599999 1.00000 0.00000             
Ti    core 0.8149754 0.5657504 0.3126231 2.43599999 1.00000 0.00000             
Ti    core 0.6490946 0.5657510 0.3125854 2.43599999 1.00000 0.00000             
Ti    core 0.4820119 0.5661393 0.3118263 2.43599999 1.00000 0.00000             
Ti    core 0.4004016 0.7327726 0.3122434 2.43599999 1.00000 0.00000             
Ti    core 0.2320477 0.3993659 0.3128604 2.43599999 1.00000 0.00000             
Ti    core 0.0655670 0.3991864 0.3129070 2.43599999 1.00000 0.00000             
Ti    core 0.8994681 0.3990336 0.3126412 2.43599999 1.00000 0.00000             
Ti    core 0.7320917 0.3990201 0.3125958 2.43599999 1.00000 0.00000             
Ti    core 0.5645560 0.3990595 0.3125595 2.43599999 1.00000 0.00000             
Ti    core 0.3985424 0.3992187 0.3128647 2.43599999 1.00000 0.00000             
Ti    core 0.2322013 0.0662380 0.3128512 2.43599999 1.00000 0.00000             
Ti    core 0.0652523 0.0661790 0.3128741 2.43599999 1.00000 0.00000             
Ti    core 0.8987110 0.0657698 0.3129131 2.43599999 1.00000 0.00000             
Ti    core 0.7320320 0.0657979 0.3128661 2.43599999 1.00000 0.00000             
Ti    core 0.5654038 0.0658279 0.3128647 2.43599999 1.00000 0.00000             
Ti    core 0.3988032 0.0662847 0.3128737 2.43599999 1.00000 0.00000             
Ti    core 0.2322259 0.7328488 0.3123435 2.43599999 1.00000 0.00000             
Ti    core 0.0635161 0.7329254 0.3122091 2.43599999 1.00000 0.00000             
Ti    core 0.8981843 0.7324025 0.3129411 2.43599999 1.00000 0.00000             
Ti    core 0.7320694 0.7323733 0.3129934 2.43599999 1.00000 0.00000             
Ti    core 0.5659210 0.7324088 0.3128811 2.43599999 1.00000 0.00000             
Ti    core 0.3153853 0.7327334 0.2846583 2.43599999 1.00000 0.00000             
Ti    core 0.1487332 0.3993351 0.2850272 2.43599999 1.00000 0.00000             
Ti    core 0.9821716 0.3993008 0.2850000 2.43599999 1.00000 0.00000             
Ti    core 0.8154093 0.3992619 0.2848705 2.43599999 1.00000 0.00000             
Ti    core 0.6487354 0.3992624 0.2848406 2.43599999 1.00000 0.00000             
Ti    core 0.4819093 0.3993107 0.2849343 2.43599999 1.00000 0.00000             
Ti    core 0.3153464 0.3993512 0.2850005 2.43599999 1.00000 0.00000             
Ti    core 0.1487069 0.0659754 0.2851249 2.43599999 1.00000 0.00000             
Ti    core 0.9820535 0.0659117 0.2851487 2.43599999 1.00000 0.00000             
Ti    core 0.8154028 0.0659128 0.2850998 2.43599999 1.00000 0.00000             
Ti    core 0.6487347 0.0659525 0.2850535 2.43599999 1.00000 0.00000             
Ti    core 0.4820786 0.0659303 0.2850669 2.43599999 1.00000 0.00000             
Ti    core 0.3153979 0.0659658 0.2851152 2.43599999 1.00000 0.00000             
Ti    core 0.1487056 0.7327325 0.2846456 2.43599999 1.00000 0.00000             
Ti    core 0.9816738 0.7326182 0.2849430 2.43599999 1.00000 0.00000             
Ti    core 0.8152376 0.7326057 0.2851157 2.43599999 1.00000 0.00000             
Ti    core 0.6488761 0.7325694 0.2850697 2.43599999 1.00000 0.00000             
Ti    core 0.4824264 0.7326086 0.2848810 2.43599999 1.00000 0.00000             
Ti    core 0.3988419 0.5659940 0.2848642 2.43599999 1.00000 0.00000             
Ti    core 0.2319975 0.2326454 0.2850580 2.43599999 1.00000 0.00000             
Ti    core 0.0652997 0.2325922 0.2851252 2.43599999 1.00000 0.00000             
Ti    core 0.8988130 0.2326254 0.2851313 2.43599999 1.00000 0.00000             
Ti    core 0.7322139 0.2326131 0.2850172 2.43599999 1.00000 0.00000             
Ti    core 0.5653261 0.2326441 0.2849757 2.43599999 1.00000 0.00000             
Ti    core 0.3986569 0.2326314 0.2850253 2.43599999 1.00000 0.00000             
Ti    core 0.2315837 0.8993470 0.2855246 2.43599999 1.00000 0.00000             
Ti    core 0.0657554 0.8992562 0.2855857 2.43599999 1.00000 0.00000             
Ti    core 0.8990876 0.8992855 0.2852664 2.43599999 1.00000 0.00000             
Ti    core 0.7321714 0.8992648 0.2850983 2.43599999 1.00000 0.00000             
Ti    core 0.5654479 0.8992756 0.2850572 2.43599999 1.00000 0.00000             
Ti    core 0.3984008 0.8992569 0.2851565 2.43599999 1.00000 0.00000             
Ti    core 0.2320263 0.5660377 0.2848544 2.43599999 1.00000 0.00000             
Ti    core 0.0652450 0.5660108 0.2848965 2.43599999 1.00000 0.00000             
Ti    core 0.8982589 0.5658496 0.2851094 2.43599999 1.00000 0.00000             
Ti    core 0.7320722 0.5658410 0.2852802 2.43599999 1.00000 0.00000             
Ti    core 0.5658514 0.5658470 0.2850713 2.43599999 1.00000 0.00000             
Ti    core 0.3154270 0.5659749 0.2578235 2.43599999 1.00000 0.00000             
Ti    core 0.1486883 0.2326362 0.2580387 2.43599999 1.00000 0.00000             
Ti    core 0.9820588 0.2326243 0.2580608 2.43599999 1.00000 0.00000             
Ti    core 0.8154505 0.2326045 0.2580135 2.43599999 1.00000 0.00000             
Ti    core 0.6487419 0.2326008 0.2579500 2.43599999 1.00000 0.00000             
Ti    core 0.4820260 0.2326176 0.2579582 2.43599999 1.00000 0.00000             
Ti    core 0.3153622 0.2326283 0.2579952 2.43599999 1.00000 0.00000             
Ti    core 0.1486957 0.8992845 0.2583630 2.43599999 1.00000 0.00000             
Ti    core 0.9822335 0.8992834 0.2582790 2.43599999 1.00000 0.00000             
Ti    core 0.8155241 0.8993025 0.2581156 2.43599999 1.00000 0.00000             
Ti    core 0.6487576 0.8993056 0.2580320 2.43599999 1.00000 0.00000             
Ti    core 0.4819714 0.8992877 0.2580436 2.43599999 1.00000 0.00000             
Ti    core 0.3151954 0.8992882 0.2581966 2.43599999 1.00000 0.00000             
Ti    core 0.1486741 0.5659671 0.2578425 2.43599999 1.00000 0.00000             
Ti    core 0.9819031 0.5659575 0.2579436 2.43599999 1.00000 0.00000             
Ti    core 0.8152838 0.5659361 0.2580870 2.43599999 1.00000 0.00000             
Ti    core 0.6488299 0.5659380 0.2580670 2.43599999 1.00000 0.00000             
Ti    core 0.4821970 0.5659616 0.2579084 2.43599999 1.00000 0.00000             
Ti    core 0.3988870 0.7326490 0.2570523 2.43599999 1.00000 0.00000             
Ti    core 0.2320329 0.3992845 0.2571833 2.43599999 1.00000 0.00000             
Ti    core 0.0654075 0.3992968 0.2571897 2.43599999 1.00000 0.00000             
Ti    core 0.8987896 0.3992894 0.2571608 2.43599999 1.00000 0.00000             
Ti    core 0.7320783 0.3992500 0.2571185 2.43599999 1.00000 0.00000             
Ti    core 0.5653409 0.3992824 0.2571202 2.43599999 1.00000 0.00000             
Ti    core 0.3986717 0.3992985 0.2571509 2.43599999 1.00000 0.00000             
Ti    core 0.2320244 0.0659516 0.2573199 2.43599999 1.00000 0.00000             
Ti    core 0.0653959 0.0659511 0.2573378 2.43599999 1.00000 0.00000             
Ti    core 0.8987842 0.0659160 0.2573106 2.43599999 1.00000 0.00000             
Ti    core 0.7321032 0.0659361 0.2572636 2.43599999 1.00000 0.00000             
Ti    core 0.5653763 0.0659319 0.2572463 2.43599999 1.00000 0.00000             
Ti    core 0.3986699 0.0659283 0.2572752 2.43599999 1.00000 0.00000             
Ti    core 0.2320350 0.7326428 0.2570048 2.43599999 1.00000 0.00000             
Ti    core 0.0651768 0.7326268 0.2570971 2.43599999 1.00000 0.00000             
Ti    core 0.8985759 0.7326429 0.2572216 2.43599999 1.00000 0.00000             
Ti    core 0.7320906 0.7326503 0.2572603 2.43599999 1.00000 0.00000             
Ti    core 0.5655632 0.7326347 0.2571719 2.43599999 1.00000 0.00000             
Ti    core 0.3988200 0.5659853 0.2307019 2.43599999 1.00000 0.00000             
Ti    core 0.3153868 0.7327395 0.2285171 2.43599999 1.00000 0.00000             
Ti    core 0.2320065 0.2325713 0.2308468 2.43599999 1.00000 0.00000             
Ti    core 0.1486907 0.3992615 0.2286452 2.43599999 1.00000 0.00000             
Ti    core 0.0653764 0.2325651 0.2308776 2.43599999 1.00000 0.00000             
Ti    core 0.9820472 0.3992681 0.2286400 2.43599999 1.00000 0.00000             
Ti    core 0.8987750 0.2325828 0.2308640 2.43599999 1.00000 0.00000             
Ti    core 0.8154094 0.3992668 0.2286094 2.43599999 1.00000 0.00000             
Ti    core 0.7321169 0.2325836 0.2308106 2.43599999 1.00000 0.00000             
Ti    core 0.6487505 0.3992674 0.2285911 2.43599999 1.00000 0.00000             
Ti    core 0.5653845 0.2325760 0.2307856 2.43599999 1.00000 0.00000             
Ti    core 0.4820636 0.3992714 0.2286020 2.43599999 1.00000 0.00000             
Ti    core 0.3986764 0.2325795 0.2308088 2.43599999 1.00000 0.00000             
Ti    core 0.3153658 0.3992644 0.2286265 2.43599999 1.00000 0.00000             
Ti    core 0.2319187 0.8992981 0.2310561 2.43599999 1.00000 0.00000             
Ti    core 0.1486959 0.0658758 0.2288002 2.43599999 1.00000 0.00000             
Ti    core 0.0654442 0.8993060 0.2310996 2.43599999 1.00000 0.00000             
Ti    core 0.9821008 0.0658785 0.2287934 2.43599999 1.00000 0.00000             
Ti    core 0.8988796 0.8993137 0.2310042 2.43599999 1.00000 0.00000             
Ti    core 0.8154616 0.0658885 0.2287500 2.43599999 1.00000 0.00000             
Ti    core 0.7321613 0.8993003 0.2308995 2.43599999 1.00000 0.00000             
Ti    core 0.6487542 0.0658973 0.2287147 2.43599999 1.00000 0.00000             
Ti    core 0.5653744 0.8993100 0.2308631 2.43599999 1.00000 0.00000             
Ti    core 0.4820158 0.0658862 0.2287238 2.43599999 1.00000 0.00000             
Ti    core 0.3985769 0.8993118 0.2309245 2.43599999 1.00000 0.00000             
Ti    core 0.3153186 0.0658763 0.2287682 2.43599999 1.00000 0.00000             
Ti    core 0.2320326 0.5660005 0.2306746 2.43599999 1.00000 0.00000             
Ti    core 0.1486443 0.7327424 0.2285391 2.43599999 1.00000 0.00000             
Ti    core 0.0652667 0.5659998 0.2307317 2.43599999 1.00000 0.00000             
Ti    core 0.9819801 0.7327294 0.2286441 2.43599999 1.00000 0.00000             
Ti    core 0.8985928 0.5659783 0.2308394 2.43599999 1.00000 0.00000             
Ti    core 0.8153914 0.7327150 0.2287141 2.43599999 1.00000 0.00000             
Ti    core 0.7320759 0.5659811 0.2308871 2.43599999 1.00000 0.00000             
Ti    core 0.6488000 0.7327052 0.2286864 2.43599999 1.00000 0.00000             
Ti    core 0.5655341 0.5659870 0.2308074 2.43599999 1.00000 0.00000             
Ti    core 0.4821312 0.7327187 0.2285923 2.43599999 1.00000 0.00000             
O2    core 0.3944702 0.7298133 0.3495713 -1.2179999 1.00000 0.00000             
O2    core 0.2321316 0.4032143 0.3501260 -1.2179999 1.00000 0.00000             
O2    core 0.0649788 0.4009870 0.3502985 -1.2179999 1.00000 0.00000             
O2    core 0.8949926 0.4012217 0.3499728 
#H22   core 0.8949926 0.4012217 0.3599728 
O2    core 0.8869165 0.2231785 0.3561642
#H22   core 0.8878222 0.1869132 0.3619047
O3    core 0.5692011 0.4001334 0.3499698 
H22    core 0.5692011 0.4001334 0.3599698
O2    core 0.3992399 0.4002358 0.3502598 -1.2179999 1.00000 0.00000             
O2    core 0.2314249 0.0673646 0.3499245 -1.2179999 1.00000 0.00000             
O2    core 0.0661291 0.0689415 0.3499578 -1.2179999 1.00000 0.00000             
O2    core 0.8985166 0.0677513 0.3501724 -1.2179999 1.00000 0.00000             
O2    core 0.7320142 0.0684289 0.3500927 -1.2179999 1.00000 0.00000             
O2    core 0.5654200 0.0660657 0.3501444 -1.2179999 1.00000 0.00000             
O2    core 0.3988316 0.0678207 0.3501435 -1.2179999 1.00000 0.00000             
O3    core 0.2314361 0.7330320 0.3498828 -0.3380000 1.00000 0.00000             
H22   core 0.2275149 0.7454690 0.3580190 0.12000000 1.00000 0.00000             
O2    core 0.0710772 0.7283540 0.3493152 -1.2179999 1.00000 0.00000             
O2    core 0.8989847 0.7310284 0.3504250 -1.2179999 1.00000 0.00000             
O2    core 0.7320439 0.7333013 0.3502771 -1.2179999 1.00000 0.00000             
O2    core 0.5651961 0.7331726 0.3503455 -1.2179999 1.00000 0.00000             
O2    core 0.1489114 0.1728581 0.3404664 -1.2179999 1.00000 0.00000             
O2    core 0.9819730 0.1725132 0.3404350 -1.2179999 1.00000 0.00000             
O2    core 0.8144361 0.1719776 0.3401977 -1.2179999 1.00000 0.00000             
O2    core 0.6478585 0.1728885 0.3406363 -1.2179999 1.00000 0.00000             
O2    core 0.4827245 0.1729098 0.3406482 -1.2179999 1.00000 0.00000             
O2    core 0.3161452 0.1729002 0.3406977 -1.2179999 1.00000 0.00000             
O2    core 0.1512508 0.8309888 0.3387649 -1.2179999 1.00000 0.00000             
O2    core 0.9804027 0.8361371 0.3406978 -1.2179999 1.00000 0.00000             
O2    core 0.8158518 0.8381360 0.3408444 -1.2179999 1.00000 0.00000             
O2    core 0.6480980 0.8382500 0.3407526 -1.2179999 1.00000 0.00000             
O2    core 0.4809924 0.8377274 0.3409041 -1.2179999 1.00000 0.00000             
O2    core 0.3172857 0.8336371 0.3401344 -1.2179999 1.00000 0.00000             
O2    core 0.9823185 0.5056213 0.3406900 -1.2179999 1.00000 0.00000             
O2    core 0.4819504 0.5055415 0.3407388 -1.2179999 1.00000 0.00000             
O2    core 0.3164350 0.5066142 0.3406263 -1.2179999 1.00000 0.00000             
O2    core 0.1480079 0.5068617 0.3406519 -1.2179999 1.00000 0.00000             
O2    core 0.8195258 0.5016167 0.3391198 -1.2179999 1.00000 0.00000             
O2    core 0.6436058 0.5013116 0.3390716 -1.2179999 1.00000 0.00000             
O2    core 0.3128936 0.6290092 0.3405625 -1.2179999 1.00000 0.00000             
O2    core 0.1491270 0.2940471 0.3408916 -1.2179999 1.00000 0.00000             
O2    core 0.9824268 0.2947529 0.3408472 -1.2179999 1.00000 0.00000             
O2    core 0.8114960 0.2959899 0.3407690 -1.2179999 1.00000 0.00000             
O2    core 0.6507767 0.2951067 0.3409139 -1.2179999 1.00000 0.00000             
O2    core 0.4826047 0.2941228 0.3409709 -1.2179999 1.00000 0.00000             
O2    core 0.3152621 0.2941189 0.3408290 -1.2179999 1.00000 0.00000             
O2    core 0.9796342 0.9614930 0.3405866 -1.2179999 1.00000 0.00000             
O2    core 0.4822395 0.9595913 0.3407713 -1.2179999 1.00000 0.00000             
O2    core 0.3184628 0.9609955 0.3404063 -1.2179999 1.00000 0.00000             
O2    core 0.1523002 0.6290289 0.3403006 -1.2179999 1.00000 0.00000             
O2    core 0.9825686 0.6268535 0.3408121 -1.2179999 1.00000 0.00000             
O2    core 0.8166431 0.6266715 0.3407364 -1.2179999 1.00000 0.00000             
O2    core 0.6466791 0.6269253 0.3407348 -1.2179999 1.00000 0.00000             
O2    core 0.4813286 0.6271597 0.3407928 -1.2179999 1.00000 0.00000             
O2    core 0.1491979 0.9640840 0.3389598 -1.2179999 1.00000 0.00000             
O2    core 0.8147012 0.9598133 0.3408359 -1.2179999 1.00000 0.00000             
O2    core 0.6488769 0.9595482 0.3407948 -1.2179999 1.00000 0.00000             
O2    core 0.4023584 0.7312794 0.3288830 -1.2179999 1.00000 0.00000             
O2    core 0.2322895 0.4005707 0.3295275 -1.2179999 1.00000 0.00000             
O2    core 0.0658792 0.3997430 0.3295604 -1.2179999 1.00000 0.00000             
O2    core 0.9003864 0.3971098 0.3292466 -1.2179999 1.00000 0.00000             
O2    core 0.7317261 0.3962553 0.3297253 -1.2179999 1.00000 0.00000             
O2    core 0.5632836 0.3963237 0.3292227 -1.2179999 1.00000 0.00000             
O2    core 0.3987998 0.3995192 0.3295595 -1.2179999 1.00000 0.00000             
O2    core 0.2340390 0.0692793 0.3292874 -1.2179999 1.00000 0.00000             
O2    core 0.0642132 0.0689705 0.3292823 -1.2179999 1.00000 0.00000             
O2    core 0.8976212 0.0655557 0.3294332 -1.2179999 1.00000 0.00000             
O2    core 0.7311516 0.0658878 0.3294565 -1.2179999 1.00000 0.00000             
O2    core 0.5654646 0.0657607 0.3294803 -1.2179999 1.00000 0.00000             
O2    core 0.3999092 0.0667071 0.3294457 -1.2179999 1.00000 0.00000             
O2    core 0.2335503 0.7292433 0.3299781 -1.2179999 1.00000 0.00000             
O2    core 0.0607627 0.7289700 0.3286911 -1.2179999 1.00000 0.00000             
O2    core 0.8980522 0.7316563 0.3295814 -1.2179999 1.00000 0.00000             
O2    core 0.7317241 0.7332500 0.3295997 -1.2179999 1.00000 0.00000             
O2    core 0.5650052 0.7323714 0.3295764 -1.2179999 1.00000 0.00000             
O2    core 0.3981896 0.5670468 0.3228934 -1.2179999 1.00000 0.00000             
O2    core 0.2325239 0.2335515 0.3229634 -1.2179999 1.00000 0.00000             
O2    core 0.0657735 0.2338599 0.3230111 -1.2179999 1.00000 0.00000             
O2    core 0.8980104 0.2342935 0.3232229 -1.2179999 1.00000 0.00000             
O2    core 0.7309811 0.2331032 0.3228694 -1.2179999 1.00000 0.00000             
O2    core 0.5657104 0.2339519 0.3229631 -1.2179999 1.00000 0.00000             
O2    core 0.3991642 0.2336098 0.3230070 -1.2179999 1.00000 0.00000             
O2    core 0.2354749 0.8988657 0.3235041 -1.2179999 1.00000 0.00000             
O2    core 0.0627819 0.8982093 0.3236866 -1.2179999 1.00000 0.00000             
O2    core 0.8969925 0.8989869 0.3230692 -1.2179999 1.00000 0.00000             
O2    core 0.7316642 0.8989405 0.3230238 -1.2179999 1.00000 0.00000             
O2    core 0.5652121 0.8989323 0.3230103 -1.2179999 1.00000 0.00000             
O2    core 0.4005534 0.8983997 0.3229731 -1.2179999 1.00000 0.00000             
O2    core 0.2324546 0.5657574 0.3227297 -1.2179999 1.00000 0.00000             
O2    core 0.0661004 0.5669532 0.3228804 -1.2179999 1.00000 0.00000             
O2    core 0.9010523 0.5671889 0.3228455 -1.2179999 1.00000 0.00000             
O2    core 0.7317122 0.5664254 0.3235207 -1.2179999 1.00000 0.00000             
O2    core 0.5627534 0.5672475 0.3228173 -1.2179999 1.00000 0.00000             
O2    core 0.3153919 0.6677273 0.3125740 -1.2179999 1.00000 0.00000             
O2    core 0.3155300 0.4651601 0.3125173 -1.2179999 1.00000 0.00000             
O2    core 0.1490725 0.3342695 0.3125696 -1.2179999 1.00000 0.00000             
O2    core 0.1488899 0.1320475 0.3124285 -1.2179999 1.00000 0.00000             
O2    core 0.9825144 0.3339707 0.3123914 -1.2179999 1.00000 0.00000             
O2    core 0.9813549 0.1320433 0.3124670 -1.2179999 1.00000 0.00000             
O2    core 0.8150344 0.3341157 0.3125571 -1.2179999 1.00000 0.00000             
O2    core 0.8150369 0.1317007 0.3125522 -1.2179999 1.00000 0.00000             
O2    core 0.6486457 0.3341212 0.3125122 -1.2179999 1.00000 0.00000             
O2    core 0.6484981 0.1316773 0.3125187 -1.2179999 1.00000 0.00000             
O2    core 0.4815537 0.3338250 0.3123338 -1.2179999 1.00000 0.00000             
O2    core 0.4824912 0.1319152 0.3125400 -1.2179999 1.00000 0.00000             
O2    core 0.3154410 0.3342296 0.3125765 -1.2179999 1.00000 0.00000             
O2    core 0.3160765 0.1321511 0.3124107 -1.2179999 1.00000 0.00000             
O2    core 0.1489848 0.0009645 0.3127438 -1.2179999 1.00000 0.00000             
O2    core 0.1490942 0.7962035 0.3130573 -1.2179999 1.00000 0.00000             
O2    core 0.9819930 0.0006849 0.3125376 -1.2179999 1.00000 0.00000             
O2    core 0.9810529 0.7978228 0.3123142 -1.2179999 1.00000 0.00000             
O2    core 0.8148887 0.0004674 0.3125058 -1.2179999 1.00000 0.00000             
O2    core 0.8149754 0.7978184 0.3125404 -1.2179999 1.00000 0.00000             
O2    core 0.6485055 0.0003545 0.3125455 -1.2179999 1.00000 0.00000             
O2    core 0.6485934 0.7979406 0.3125695 -1.2179999 1.00000 0.00000             
O2    core 0.4821193 0.0005134 0.3124856 -1.2179999 1.00000 0.00000             
O2    core 0.4828537 0.7980416 0.3122566 -1.2179999 1.00000 0.00000             
O2    core 0.3159780 0.0007833 0.3125254 -1.2179999 1.00000 0.00000             
O2    core 0.3156697 0.7965472 0.3128029 -1.2179999 1.00000 0.00000             
O2    core 0.1493661 0.6677845 0.3126184 -1.2179999 1.00000 0.00000             
O2    core 0.1489277 0.4652046 0.3125173 -1.2179999 1.00000 0.00000             
O2    core 0.9814988 0.6667822 0.3119580 -1.2179999 1.00000 0.00000             
O2    core 0.9825489 0.4649331 0.3124319 -1.2179999 1.00000 0.00000             
O2    core 0.8150228 0.6668895 0.3126326 -1.2179999 1.00000 0.00000             
O2    core 0.8151119 0.4638591 0.3127848 -1.2179999 1.00000 0.00000             
O2    core 0.6486500 0.6669915 0.3126559 -1.2179999 1.00000 0.00000             
O2    core 0.6486014 0.4637862 0.3127994 -1.2179999 1.00000 0.00000             
O2    core 0.4823313 0.6670132 0.3121064 -1.2179999 1.00000 0.00000             
O2    core 0.4815829 0.4649332 0.3124447 -1.2179999 1.00000 0.00000             
O2    core 0.3985129 0.5663728 0.3014484 -1.2179999 1.00000 0.00000             
O2    core 0.2321016 0.2332282 0.3015998 -1.2179999 1.00000 0.00000             
O2    core 0.0651972 0.2329209 0.3016610 -1.2179999 1.00000 0.00000             
O2    core 0.8986266 0.2331375 0.3017138 -1.2179999 1.00000 0.00000             
O2    core 0.7323025 0.2330670 0.3015723 -1.2179999 1.00000 0.00000             
O2    core 0.5652953 0.2329828 0.3015463 -1.2179999 1.00000 0.00000             
O2    core 0.3987239 0.2329163 0.3015823 -1.2179999 1.00000 0.00000             
O2    core 0.2310147 0.8979397 0.3021559 -1.2179999 1.00000 0.00000             
O2    core 0.0667842 0.8983661 0.3022161 -1.2179999 1.00000 0.00000             
O2    core 0.8992713 0.8995088 0.3017730 -1.2179999 1.00000 0.00000             
O2    core 0.7319781 0.8992326 0.3016363 -1.2179999 1.00000 0.00000             
O2    core 0.5656366 0.8994794 0.3015983 -1.2179999 1.00000 0.00000             
O2    core 0.3979468 0.8984611 0.3017078 -1.2179999 1.00000 0.00000             
O2    core 0.2320933 0.5668558 0.3014407 -1.2179999 1.00000 0.00000             
O2    core 0.0657596 0.5663866 0.3014630 -1.2179999 1.00000 0.00000             
O2    core 0.8973766 0.5647880 0.3016368 -1.2179999 1.00000 0.00000             
O2    core 0.7319503 0.5648477 0.3019321 -1.2179999 1.00000 0.00000             
O2    core 0.5665629 0.5649685 0.3016176 -1.2179999 1.00000 0.00000             
O2    core 0.3981604 0.7325170 0.2955606 -1.2179999 1.00000 0.00000             
O2    core 0.2321988 0.3997010 0.2958483 -1.2179999 1.00000 0.00000             
O2    core 0.0655603 0.3995968 0.2958405 -1.2179999 1.00000 0.00000             
O2    core 0.8984070 0.3993777 0.2957607 -1.2179999 1.00000 0.00000             
O2    core 0.7319083 0.3993789 0.2957354 -1.2179999 1.00000 0.00000             
O2    core 0.5655252 0.3993854 0.2957180 -1.2179999 1.00000 0.00000             
O2    core 0.3986995 0.3995882 0.2958122 -1.2179999 1.00000 0.00000             
O2    core 0.2322204 0.0661651 0.2958814 -1.2179999 1.00000 0.00000             
O2    core 0.0654390 0.0662288 0.2958954 -1.2179999 1.00000 0.00000             
O2    core 0.8984564 0.0661268 0.2958903 -1.2179999 1.00000 0.00000             
O2    core 0.7318073 0.0661252 0.2958672 -1.2179999 1.00000 0.00000             
O2    core 0.5654261 0.0660904 0.2958588 -1.2179999 1.00000 0.00000             
O2    core 0.3990297 0.0662419 0.2958650 -1.2179999 1.00000 0.00000             
O2    core 0.2321445 0.7324260 0.2956024 -1.2179999 1.00000 0.00000             
O2    core 0.0662818 0.7325271 0.2955689 -1.2179999 1.00000 0.00000             
O2    core 0.8985783 0.7324201 0.2958166 -1.2179999 1.00000 0.00000             
O2    core 0.7318159 0.7323690 0.2959152 -1.2179999 1.00000 0.00000             
O2    core 0.5653206 0.7324695 0.2957960 -1.2179999 1.00000 0.00000             
O2    core 0.3153942 0.5013611 0.2849872 -1.2179999 1.00000 0.00000             
O2    core 0.3154507 0.6308616 0.2848752 -1.2179999 1.00000 0.00000             
O2    core 0.1487688 0.1679970 0.2850771 -1.2179999 1.00000 0.00000             
O2    core 0.1487256 0.2976238 0.2850594 -1.2179999 1.00000 0.00000             
O2    core 0.9819490 0.1679197 0.2850800 -1.2179999 1.00000 0.00000             
O2    core 0.9820395 0.2976199 0.2850372 -1.2179999 1.00000 0.00000             
O2    core 0.8153986 0.1679134 0.2850683 -1.2179999 1.00000 0.00000             
O2    core 0.8154173 0.2975589 0.2850075 -1.2179999 1.00000 0.00000             
O2    core 0.6486860 0.1679830 0.2850624 -1.2179999 1.00000 0.00000             
O2    core 0.6486869 0.2974846 0.2850124 -1.2179999 1.00000 0.00000             
O2    core 0.4820755 0.1679334 0.2850278 -1.2179999 1.00000 0.00000             
O2    core 0.4820099 0.2975713 0.2849873 -1.2179999 1.00000 0.00000             
O2    core 0.3154386 0.1679674 0.2850455 -1.2179999 1.00000 0.00000             
O2    core 0.3154230 0.2976304 0.2850302 -1.2179999 1.00000 0.00000             
O2    core 0.1488559 0.8340351 0.2850845 -1.2179999 1.00000 0.00000             
O2    core 0.1487886 0.9641942 0.2852515 -1.2179999 1.00000 0.00000             
O2    core 0.9824196 0.8343069 0.2851953 -1.2179999 1.00000 0.00000             
O2    core 0.9824779 0.9640207 0.2852800 -1.2179999 1.00000 0.00000             
O2    core 0.8154708 0.8344810 0.2851516 -1.2179999 1.00000 0.00000             
O2    core 0.8154265 0.9640664 0.2851326 -1.2179999 1.00000 0.00000             
O2    core 0.6486899 0.8344269 0.2850631 -1.2179999 1.00000 0.00000             
O2    core 0.6487207 0.9641261 0.2850435 -1.2179999 1.00000 0.00000             
O2    core 0.4819399 0.8344003 0.2850635 -1.2179999 1.00000 0.00000             
O2    core 0.4818941 0.9639449 0.2851456 -1.2179999 1.00000 0.00000             
O2    core 0.3150644 0.8342619 0.2851244 -1.2179999 1.00000 0.00000             