# 
# Keywords:
# 
opti  fix molmec phon pot prop comp conv  
# 
# Options:
# 
cell
  17.724000  19.461000  48.346000  90.000000  90.000000  90.000000
fractional  1   
Ti    core 0.0000000 1/3       0.0000000 2.43599999 1.00000 0.00000             
Ti    core 5/6       1.0000000 1.0000000 2.43599999 1.00000 0.00000             
Ti    core 2/3       1.0000000 0.0000000 2.43599999 1.00000 0.00000             
Ti    core 0.5000000 1.0000000 0.0000000 2.43599999 1.00000 0.00000             
Ti    core 1/3       1.0000000 1.0000000 2.43599999 1.00000 0.00000             
Ti    core 1/6       1.0000000 0.0000000 2.43599999 1.00000 0.00000             
Ti    core 1.0000000 1.0000000 0.0000000 2.43599999 1.00000 0.00000             
Ti    core 5/6       2/3       1.0000000 2.43599999 1.00000 0.00000             
Ti    core 2/3       2/3       0.0000000 2.43599999 1.00000 0.00000             
Ti    core 0.5000000 2/3       1.0000000 2.43599999 1.00000 0.00000             
Ti    core 1/3       2/3       1.0000000 2.43599999 1.00000 0.00000             
Ti    core 1/6       2/3       0.0000000 2.43599999 1.00000 0.00000             
Ti    core 1.0000000 2/3       1.0000000 2.43599999 1.00000 0.00000             
Ti    core 5/6       1/3       1.0000000 2.43599999 1.00000 0.00000             
Ti    core 2/3       1/3       0.0000000 2.43599999 1.00000 0.00000             
Ti    core 0.5000000 1/3       0.0000000 2.43599999 1.00000 0.00000             
Ti    core 1/3       1/3       1.0000000 2.43599999 1.00000 0.00000             
Ti    core 1/6       1/3       0.0000000 2.43599999 1.00000 0.00000             
Ti    core 0.7499999 5/6       0.9949114 2.43599999 1.00000 0.00000             
Ti    core 0.5833333 5/6       0.9949114 2.43599999 1.00000 0.00000             
Ti    core 0.4166666 5/6       0.9949114 2.43599999 1.00000 0.00000             
Ti    core 0.5833333 0.5000000 0.9949114 2.43599999 1.00000 0.00000             
Ti    core 0.2499999 0.5000000 0.9949114 2.43599999 1.00000 0.00000             
Ti    core 0.0833333 0.5000000 0.9949114 2.43599999 1.00000 0.00000             
Ti    core 0.5833333 1/6       0.9949114 2.43599999 1.00000 0.00000             
Ti    core 0.2499999 1/6       0.9949114 2.43599999 1.00000 0.00000             
Ti    core 0.0833333 1/6       0.9949114 2.43599999 1.00000 0.00000             
Ti    core 0.9166666 5/6       0.9949114 2.43599999 1.00000 0.00000             
Ti    core 0.2499999 5/6       0.9949114 2.43599999 1.00000 0.00000             
Ti    core 0.0833333 5/6       0.9949114 2.43599999 1.00000 0.00000             
Ti    core 0.9166666 0.5000000 0.9949114 2.43599999 1.00000 0.00000             
Ti    core 0.7499999 0.5000000 0.9949114 2.43599999 1.00000 0.00000             
Ti    core 0.4166666 0.5000000 0.9949114 2.43599999 1.00000 0.00000             
Ti    core 0.9166666 1/6       0.9949114 2.43599999 1.00000 0.00000             
Ti    core 0.7499999 1/6       0.9949114 2.43599999 1.00000 0.00000             
Ti    core 0.4166666 1/6       0.9949114 2.43599999 1.00000 0.00000             
Ti    core 1.0000000 1/6       0.9303607 2.43599999 1.00000 0.00000             
Ti    core 5/6       5/6       0.9303607 2.43599999 1.00000 0.00000             
Ti    core 2/3       5/6       0.9303607 2.43599999 1.00000 0.00000             
Ti    core 0.5000000 5/6       0.9303607 2.43599999 1.00000 0.00000             
Ti    core 1/3       5/6       0.9303607 2.43599999 1.00000 0.00000             
Ti    core 1/6       5/6       0.9303607 2.43599999 1.00000 0.00000             
Ti    core 1.0000000 5/6       0.9303607 2.43599999 1.00000 0.00000             
Ti    core 5/6       0.5000000 0.9303607 2.43599999 1.00000 0.00000             
Ti    core 2/3       0.5000000 0.9303607 2.43599999 1.00000 0.00000             
Ti    core 0.5000000 0.5000000 0.9303607 2.43599999 1.00000 0.00000             
Ti    core 1/3       0.5000000 0.9303607 2.43599999 1.00000 0.00000             
Ti    core 1/6       0.5000000 0.9303607 2.43599999 1.00000 0.00000             
Ti    core 1.0000000 0.5000000 0.9303607 2.43599999 1.00000 0.00000             
Ti    core 5/6       1/6       0.9303607 2.43599999 1.00000 0.00000             
Ti    core 2/3       1/6       0.9303607 2.43599999 1.00000 0.00000             
Ti    core 0.5000000 1/6       0.9303607 2.43599999 1.00000 0.00000             
Ti    core 1/3       1/6       0.9303607 2.43599999 1.00000 0.00000             
Ti    core 1/6       1/6       0.9303607 2.43599999 1.00000 0.00000             
Ti    core 0.0833333 1/3       0.9321858 2.43599999 1.00000 0.00000             
Ti    core 0.9166666 0.0000000 0.9321858 2.43599999 1.00000 0.00000             
Ti    core 0.7499999 0.0000000 0.9321858 2.43599999 1.00000 0.00000             
Ti    core 0.5833333 0.0000000 0.9321858 2.43599999 1.00000 0.00000             
Ti    core 0.4166666 0.0000000 0.9321858 2.43599999 1.00000 0.00000             
Ti    core 0.2499999 0.0000000 0.9321858 2.43599999 1.00000 0.00000             
Ti    core 0.0833333 0.0000000 0.9321858 2.43599999 1.00000 0.00000             
Ti    core 0.9166666 2/3       0.9321858 2.43599999 1.00000 0.00000             
Ti    core 0.7499999 2/3       0.9321858 2.43599999 1.00000 0.00000             
Ti    core 0.5833333 2/3       0.9321858 2.43599999 1.00000 0.00000             
Ti    core 0.4166666 2/3       0.9321858 2.43599999 1.00000 0.00000             
Ti    core 0.2499999 2/3       0.9321858 2.43599999 1.00000 0.00000             
Ti    core 0.0833333 2/3       0.9321858 2.43599999 1.00000 0.00000             
Ti    core 0.9166666 1/3       0.9321858 2.43599999 1.00000 0.00000             
Ti    core 0.7499999 1/3       0.9321858 2.43599999 1.00000 0.00000             
Ti    core 0.5833333 1/3       0.9321858 2.43599999 1.00000 0.00000             
Ti    core 0.4166666 1/3       0.9321858 2.43599999 1.00000 0.00000             
Ti    core 0.2499999 1/3       0.9321858 2.43599999 1.00000 0.00000             
Ti    core 1.0000000 1/3       0.8660923 2.43599999 1.00000 0.00000             
Ti    core 5/6       0.0000000 0.8660923 2.43599999 1.00000 0.00000             
Ti    core 2/3       0.0000000 0.8660923 2.43599999 1.00000 0.00000             
Ti    core 0.5000000 0.0000000 0.8660923 2.43599999 1.00000 0.00000             
Ti    core 1/3       0.0000000 0.8660923 2.43599999 1.00000 0.00000             
Ti    core 1/6       0.0000000 0.8660923 2.43599999 1.00000 0.00000             
Ti    core 1.0000000 0.0000000 0.8660923 2.43599999 1.00000 0.00000             
Ti    core 5/6       2/3       0.8660923 2.43599999 1.00000 0.00000             
Ti    core 2/3       2/3       0.8660923 2.43599999 1.00000 0.00000             
Ti    core 0.5000000 2/3       0.8660923 2.43599999 1.00000 0.00000             
Ti    core 1/3       2/3       0.8660923 2.43599999 1.00000 0.00000             
Ti    core 1/6       2/3       0.8660923 2.43599999 1.00000 0.00000             
Ti    core 1.0000000 2/3       0.8660923 2.43599999 1.00000 0.00000             
Ti    core 5/6       1/3       0.8660923 2.43599999 1.00000 0.00000             
Ti    core 2/3       1/3       0.8660923 2.43599999 1.00000 0.00000             
Ti    core 0.5000000 1/3       0.8660923 2.43599999 1.00000 0.00000             
Ti    core 1/3       1/3       0.8660923 2.43599999 1.00000 0.00000             
Ti    core 1/6       1/3       0.8660923 2.43599999 1.00000 0.00000             
Ti    core 0.0833333 1/6       0.8660923 2.43599999 1.00000 0.00000             
Ti    core 0.9166666 5/6       0.8660923 2.43599999 1.00000 0.00000             
Ti    core 0.7499999 5/6       0.8660923 2.43599999 1.00000 0.00000             
Ti    core 0.5833333 5/6       0.8660923 2.43599999 1.00000 0.00000             
Ti    core 0.4166666 5/6       0.8660923 2.43599999 1.00000 0.00000             
Ti    core 0.2499999 5/6       0.8660923 2.43599999 1.00000 0.00000             
Ti    core 0.0833333 5/6       0.8660923 2.43599999 1.00000 0.00000             
Ti    core 0.9166666 0.5000000 0.8660923 2.43599999 1.00000 0.00000             
Ti    core 0.7499999 0.5000000 0.8660923 2.43599999 1.00000 0.00000             
Ti    core 0.5833333 0.5000000 0.8660923 2.43599999 1.00000 0.00000             
Ti    core 0.4166666 0.5000000 0.8660923 2.43599999 1.00000 0.00000             
Ti    core 0.2499999 0.5000000 0.8660923 2.43599999 1.00000 0.00000             
Ti    core 0.0833333 0.5000000 0.8660923 2.43599999 1.00000 0.00000             
Ti    core 0.9166666 1/6       0.8660923 2.43599999 1.00000 0.00000             
Ti    core 0.7499999 1/6       0.8660923 2.43599999 1.00000 0.00000             
Ti    core 0.5833333 1/6       0.8660923 2.43599999 1.00000 0.00000             
Ti    core 0.4166666 1/6       0.8660923 2.43599999 1.00000 0.00000             
Ti    core 0.2499999 1/6       0.8660923 2.43599999 1.00000 0.00000             
Ti    core 1.0000000 1/6       0.8018239 2.43599999 1.00000 0.00000             
Ti    core 5/6       5/6       0.8018239 2.43599999 1.00000 0.00000             
Ti    core 2/3       5/6       0.8018239 2.43599999 1.00000 0.00000             
Ti    core 0.5000000 5/6       0.8018239 2.43599999 1.00000 0.00000             
Ti    core 1/3       5/6       0.8018239 2.43599999 1.00000 0.00000             
Ti    core 1/6       5/6       0.8018239 2.43599999 1.00000 0.00000             
Ti    core 1.0000000 5/6       0.8018239 2.43599999 1.00000 0.00000             
Ti    core 5/6       0.5000000 0.8018239 2.43599999 1.00000 0.00000             
Ti    core 2/3       0.5000000 0.8018239 2.43599999 1.00000 0.00000             
Ti    core 0.5000000 0.5000000 0.8018239 2.43599999 1.00000 0.00000             
Ti    core 1/3       0.5000000 0.8018239 2.43599999 1.00000 0.00000             
Ti    core 1/6       0.5000000 0.8018239 2.43599999 1.00000 0.00000             
Ti    core 1.0000000 0.5000000 0.8018239 2.43599999 1.00000 0.00000             
Ti    core 5/6       1/6       0.8018239 2.43599999 1.00000 0.00000             
Ti    core 2/3       1/6       0.8018239 2.43599999 1.00000 0.00000             
Ti    core 0.5000000 1/6       0.8018239 2.43599999 1.00000 0.00000             
Ti    core 1/3       1/6       0.8018239 2.43599999 1.00000 0.00000             
Ti    core 1/6       1/6       0.8018239 2.43599999 1.00000 0.00000             
Ti    core 0.0833333 1/3       0.7999987 2.43599999 1.00000 0.00000             
Ti    core 0.9166666 0.0000000 0.7999987 2.43599999 1.00000 0.00000             
Ti    core 0.7499999 0.0000000 0.7999987 2.43599999 1.00000 0.00000             
Ti    core 0.5833333 0.0000000 0.7999987 2.43599999 1.00000 0.00000             
Ti    core 0.4166666 0.0000000 0.7999987 2.43599999 1.00000 0.00000             
Ti    core 0.2499999 0.0000000 0.7999987 2.43599999 1.00000 0.00000             
Ti    core 0.0833333 0.0000000 0.7999987 2.43599999 1.00000 0.00000             
Ti    core 0.9166666 2/3       0.7999987 2.43599999 1.00000 0.00000             
Ti    core 0.7499999 2/3       0.7999987 2.43599999 1.00000 0.00000             
Ti    core 0.5833333 2/3       0.7999987 2.43599999 1.00000 0.00000             
Ti    core 0.4166666 2/3       0.7999987 2.43599999 1.00000 0.00000             
Ti    core 0.2499999 2/3       0.7999987 2.43599999 1.00000 0.00000             
Ti    core 0.0833333 2/3       0.7999987 2.43599999 1.00000 0.00000             
Ti    core 0.9166666 1/3       0.7999987 2.43599999 1.00000 0.00000             
Ti    core 0.7499999 1/3       0.7999987 2.43599999 1.00000 0.00000             
Ti    core 0.5833333 1/3       0.7999987 2.43599999 1.00000 0.00000             
Ti    core 0.4166666 1/3       0.7999987 2.43599999 1.00000 0.00000             
Ti    core 0.2499999 1/3       0.7999987 2.43599999 1.00000 0.00000             
Ti    core 0.0833333 1/6       0.7372732 2.43599999 1.00000 0.00000             
Ti    core 1.0000000 1/3       0.7321846 2.43599999 1.00000 0.00000             
Ti    core 0.9166666 5/6       0.7372732 2.43599999 1.00000 0.00000             
Ti    core 5/6       1.0000000 0.7321846 2.43599999 1.00000 0.00000             
Ti    core 0.7499999 5/6       0.7372732 2.43599999 1.00000 0.00000             
Ti    core 2/3       1.0000000 0.7321846 2.43599999 1.00000 0.00000             
Ti    core 0.5833333 5/6       0.7372732 2.43599999 1.00000 0.00000             
Ti    core 0.5000000 1.0000000 0.7321846 2.43599999 1.00000 0.00000             
Ti    core 0.4166666 5/6       0.7372732 2.43599999 1.00000 0.00000             
Ti    core 1/3       1.0000000 0.7321846 2.43599999 1.00000 0.00000             
Ti    core 0.2499999 5/6       0.7372732 2.43599999 1.00000 0.00000             
Ti    core 1/6       1.0000000 0.7321846 2.43599999 1.00000 0.00000             
Ti    core 0.0833333 5/6       0.7372732 2.43599999 1.00000 0.00000             
Ti    core 1.0000000 1.0000000 0.7321846 2.43599999 1.00000 0.00000             
Ti    core 0.9166666 0.5000000 0.7372732 2.43599999 1.00000 0.00000             
Ti    core 5/6       2/3       0.7321846 2.43599999 1.00000 0.00000             
Ti    core 0.7499999 0.5000000 0.7372732 2.43599999 1.00000 0.00000             
Ti    core 2/3       2/3       0.7321846 2.43599999 1.00000 0.00000             
Ti    core 0.5833333 0.5000000 0.7372732 2.43599999 1.00000 0.00000             
Ti    core 0.5000000 2/3       0.7321846 2.43599999 1.00000 0.00000             
Ti    core 0.4166666 0.5000000 0.7372732 2.43599999 1.00000 0.00000             
Ti    core 1/3       2/3       0.7321846 2.43599999 1.00000 0.00000             
Ti    core 0.2499999 0.5000000 0.7372732 2.43599999 1.00000 0.00000             
Ti    core 1/6       2/3       0.7321846 2.43599999 1.00000 0.00000             
Ti    core 0.0833333 0.5000000 0.7372732 2.43599999 1.00000 0.00000             
Ti    core 1.0000000 2/3       0.7321846 2.43599999 1.00000 0.00000             
Ti    core 0.9166666 1/6       0.7372732 2.43599999 1.00000 0.00000             
Ti    core 5/6       1/3       0.7321846 2.43599999 1.00000 0.00000             
Ti    core 0.7499999 1/6       0.7372732 2.43599999 1.00000 0.00000             
Ti    core 2/3       1/3       0.7321846 2.43599999 1.00000 0.00000             
Ti    core 0.5833333 1/6       0.7372732 2.43599999 1.00000 0.00000             
Ti    core 0.5000000 1/3       0.7321846 2.43599999 1.00000 0.00000             
Ti    core 0.4166666 1/6       0.7372732 2.43599999 1.00000 0.00000             
Ti    core 1/3       1/3       0.7321846 2.43599999 1.00000 0.00000             
Ti    core 0.2499999 1/6       0.7372732 2.43599999 1.00000 0.00000             
Ti    core 1/6       1/3       0.7321846 2.43599999 1.00000 0.00000             
O2    core 0.0833333 1/3       0.0207280 -1.2179999 1.00000 0.00000             
O2    core 0.9166666 1.0000000 0.0207280 -1.2179999 1.00000 0.00000             
O2    core 0.7500000 1.0000000 0.0207280 -1.2179999 1.00000 0.00000             
O2    core 0.5833333 1.0000000 0.0207280 -1.2179999 1.00000 0.00000             
O2    core 0.4166666 1.0000000 0.0207280 -1.2179999 1.00000 0.00000             
O2    core 0.2500000 1.0000000 0.0207280 -1.2179999 1.00000 0.00000             
O2    core 0.0833333 1.0000000 0.0207280 -1.2179999 1.00000 0.00000             
O2    core 0.9166666 2/3       0.0207280 -1.2179999 1.00000 0.00000             
O2    core 0.7500000 2/3       0.0207280 -1.2179999 1.00000 0.00000             
O2    core 0.5833333 2/3       0.0207280 -1.2179999 1.00000 0.00000             
O2    core 0.4166666 2/3       0.0207280 -1.2179999 1.00000 0.00000             
O2    core 0.2500000 2/3       0.0207280 -1.2179999 1.00000 0.00000             
O2    core 0.0833333 2/3       0.0207280 -1.2179999 1.00000 0.00000             
O2    core 0.9166666 1/3       0.0207280 -1.2179999 1.00000 0.00000             
O2    core 0.7500000 1/3       0.0207280 -1.2179999 1.00000 0.00000             
O2    core 0.5833333 1/3       0.0207280 -1.2179999 1.00000 0.00000             
O2    core 0.4166666 1/3       0.0207280 -1.2179999 1.00000 0.00000             
O2    core 0.2500000 1/3       0.0207280 -1.2179999 1.00000 0.00000             
O2    core 5/6       0.7726698 0.9982966 -1.2179999 1.00000 0.00000             
O2    core 2/3       0.7726698 0.9982966 -1.2179999 1.00000 0.00000             
O2    core 0.5000000 0.7726698 0.9982966 -1.2179999 1.00000 0.00000             
O2    core 1/3       0.7726698 0.9982966 -1.2179999 1.00000 0.00000             
O2    core 1/6       0.7726698 0.9982966 -1.2179999 1.00000 0.00000             
O2    core 1.0000000 0.7726698 0.9982966 -1.2179999 1.00000 0.00000             
O2    core 5/6       0.4393365 0.9982966 -1.2179999 1.00000 0.00000             
O2    core 2/3       0.4393365 0.9982966 -1.2179999 1.00000 0.00000             
O2    core 0.5000000 0.4393365 0.9982966 -1.2179999 1.00000 0.00000             
O2    core 1/3       0.4393365 0.9982966 -1.2179999 1.00000 0.00000             
O2    core 1/6       0.4393365 0.9982966 -1.2179999 1.00000 0.00000             
O2    core 1.0000000 0.4393365 0.9982966 -1.2179999 1.00000 0.00000             
O2    core 2/3       0.1060031 0.9982966 -1.2179999 1.00000 0.00000             
O2    core 1/6       0.1060031 0.9982966 -1.2179999 1.00000 0.00000             
O2    core 1.0000000 0.1060031 0.9982966 -1.2179999 1.00000 0.00000             
O2    core 5/6       0.1060031 0.9982966 -1.2179999 1.00000 0.00000             
O2    core 0.5000000 0.1060031 0.9982966 -1.2179999 1.00000 0.00000             
O2    core 1/3       0.1060031 0.9982966 -1.2179999 1.00000 0.00000             
O2    core 1.0000000 0.2273301 0.9982966 -1.2179999 1.00000 0.00000             
O2    core 5/6       0.8939968 0.9982966 -1.2179999 1.00000 0.00000             
O2    core 2/3       0.8939968 0.9982966 -1.2179999 1.00000 0.00000             
O2    core 0.5000000 0.8939968 0.9982966 -1.2179999 1.00000 0.00000             
O2    core 1/3       0.8939968 0.9982966 -1.2179999 1.00000 0.00000             
O2    core 1/6       0.8939968 0.9982966 -1.2179999 1.00000 0.00000             
O2    core 1.0000000 0.8939968 0.9982966 -1.2179999 1.00000 0.00000             
O2    core 2/3       0.5606634 0.9982966 -1.2179999 1.00000 0.00000             
O2    core 1/6       0.5606634 0.9982966 -1.2179999 1.00000 0.00000             
O2    core 1.0000000 0.5606634 0.9982966 -1.2179999 1.00000 0.00000             
O2    core 5/6       0.2273301 0.9982966 -1.2179999 1.00000 0.00000             
O2    core 2/3       0.2273301 0.9982966 -1.2179999 1.00000 0.00000             
O2    core 0.5000000 0.2273301 0.9982966 -1.2179999 1.00000 0.00000             
O2    core 1/3       0.2273301 0.9982966 -1.2179999 1.00000 0.00000             
O2    core 1/6       0.2273301 0.9982966 -1.2179999 1.00000 0.00000             
O2    core 5/6       0.5606634 0.9982966 -1.2179999 1.00000 0.00000             
O2    core 0.5000000 0.5606634 0.9982966 -1.2179999 1.00000 0.00000             
O2    core 1/3       0.5606634 0.9982966 -1.2179999 1.00000 0.00000             
O2    core 0.0833333 1/3       0.9716423 -1.2179999 1.00000 0.00000             
O2    core 0.9166666 0.0000000 0.9716423 -1.2179999 1.00000 0.00000             
O2    core 0.7500000 0.0000000 0.9716423 -1.2179999 1.00000 0.00000             
O2    core 0.5833333 0.0000000 0.9716423 -1.2179999 1.00000 0.00000             
O2    core 0.4166666 0.0000000 0.9716423 -1.2179999 1.00000 0.00000             
O2    core 0.2500000 0.0000000 0.9716423 -1.2179999 1.00000 0.00000             
O2    core 0.0833333 0.0000000 0.9716423 -1.2179999 1.00000 0.00000             
O2    core 0.9166666 2/3       0.9716423 -1.2179999 1.00000 0.00000             
O2    core 0.7500000 2/3       0.9716423 -1.2179999 1.00000 0.00000             
O2    core 0.5833333 2/3       0.9716423 -1.2179999 1.00000 0.00000             
O2    core 0.4166666 2/3       0.9716423 -1.2179999 1.00000 0.00000             
O2    core 0.2500000 2/3       0.9716423 -1.2179999 1.00000 0.00000             
O2    core 0.0833333 2/3       0.9716423 -1.2179999 1.00000 0.00000             
O2    core 0.9166666 1/3       0.9716423 -1.2179999 1.00000 0.00000             
O2    core 0.7500000 1/3       0.9716423 -1.2179999 1.00000 0.00000             
O2    core 0.5833333 1/3       0.9716423 -1.2179999 1.00000 0.00000             
O2    core 0.4166666 1/3       0.9716423 -1.2179999 1.00000 0.00000             
O2    core 0.2500000 1/3       0.9716423 -1.2179999 1.00000 0.00000             
O2    core 0.0833333 1/6       0.9562217 -1.2179999 1.00000 0.00000             
O2    core 0.9166666 5/6       0.9562217 -1.2179999 1.00000 0.00000             
O2    core 0.7499999 5/6       0.9562217 -1.2179999 1.00000 0.00000             
O2    core 0.5833333 5/6       0.9562217 -1.2179999 1.00000 0.00000             
O2    core 0.4166666 5/6       0.9562217 -1.2179999 1.00000 0.00000             
O2    core 0.2499999 5/6       0.9562217 -1.2179999 1.00000 0.00000             
O2    core 0.0833333 5/6       0.9562217 -1.2179999 1.00000 0.00000             
O2    core 0.9166666 0.5000000 0.9562217 -1.2179999 1.00000 0.00000             
O2    core 0.7499999 0.5000000 0.9562217 -1.2179999 1.00000 0.00000             
O2    core 0.5833333 0.5000000 0.9562217 -1.2179999 1.00000 0.00000             
O2    core 0.4166666 0.5000000 0.9562217 -1.2179999 1.00000 0.00000             
O2    core 0.2499999 0.5000000 0.9562217 -1.2179999 1.00000 0.00000             
O2    core 0.0833333 0.5000000 0.9562217 -1.2179999 1.00000 0.00000             
O2    core 0.9166666 1/6       0.9562217 -1.2179999 1.00000 0.00000             
O2    core 0.7499999 1/6       0.9562217 -1.2179999 1.00000 0.00000             
O2    core 0.5833333 1/6       0.9562217 -1.2179999 1.00000 0.00000             
O2    core 0.4166666 1/6       0.9562217 -1.2179999 1.00000 0.00000             
O2    core 0.2499999 1/6       0.9562217 -1.2179999 1.00000 0.00000             
O2    core 1.0000000 0.2678046 0.9314040 -1.2179999 1.00000 0.00000             
O2    core 1.0000000 0.0655286 0.9314040 -1.2179999 1.00000 0.00000             
O2    core 5/6       0.9344713 0.9314040 -1.2179999 1.00000 0.00000             
O2    core 5/6       0.7321953 0.9314040 -1.2179999 1.00000 0.00000             
O2    core 2/3       0.9344713 0.9314040 -1.2179999 1.00000 0.00000             
O2    core 2/3       0.7321953 0.9314040 -1.2179999 1.00000 0.00000             
O2    core 0.5000000 0.9344713 0.9314040 -1.2179999 1.00000 0.00000             
O2    core 0.5000000 0.7321953 0.9314040 -1.2179999 1.00000 0.00000             
O2    core 1/3       0.9344713 0.9314040 -1.2179999 1.00000 0.00000             
O2    core 1/3       0.7321953 0.9314040 -1.2179999 1.00000 0.00000             
O2    core 1/6       0.9344713 0.9314040 -1.2179999 1.00000 0.00000             
O2    core 1/6       0.7321953 0.9314040 -1.2179999 1.00000 0.00000             
O2    core 1.0000000 0.9344713 0.9314040 -1.2179999 1.00000 0.00000             
O2    core 1.0000000 0.7321953 0.9314040 -1.2179999 1.00000 0.00000             
O2    core 5/6       0.6011380 0.9314040 -1.2179999 1.00000 0.00000             
O2    core 5/6       0.3988619 0.9314040 -1.2179999 1.00000 0.00000             
O2    core 2/3       0.6011380 0.9314040 -1.2179999 1.00000 0.00000             
O2    core 2/3       0.3988619 0.9314040 -1.2179999 1.00000 0.00000             
O2    core 0.5000000 0.6011380 0.9314040 -1.2179999 1.00000 0.00000             
O2    core 0.5000000 0.3988619 0.9314040 -1.2179999 1.00000 0.00000             
O2    core 1/3       0.6011380 0.9314040 -1.2179999 1.00000 0.00000             
O2    core 1/3       0.3988619 0.9314040 -1.2179999 1.00000 0.00000             
O2    core 1/6       0.6011380 0.9314040 -1.2179999 1.00000 0.00000             
O2    core 1/6       0.3988619 0.9314040 -1.2179999 1.00000 0.00000             
O2    core 1.0000000 0.6011380 0.9314040 -1.2179999 1.00000 0.00000             
O2    core 1.0000000 0.3988619 0.9314040 -1.2179999 1.00000 0.00000             
O2    core 5/6       0.2678046 0.9314040 -1.2179999 1.00000 0.00000             
O2    core 5/6       0.0655286 0.9314040 -1.2179999 1.00000 0.00000             
O2    core 2/3       0.2678046 0.9314040 -1.2179999 1.00000 0.00000             
O2    core 2/3       0.0655286 0.9314040 -1.2179999 1.00000 0.00000             
O2    core 0.5000000 0.2678046 0.9314040 -1.2179999 1.00000 0.00000             
O2    core 0.5000000 0.0655286 0.9314040 -1.2179999 1.00000 0.00000             
O2    core 1/3       0.2678046 0.9314040 -1.2179999 1.00000 0.00000             
O2    core 1/3       0.0655286 0.9314040 -1.2179999 1.00000 0.00000             
O2    core 1/6       0.2678046 0.9314040 -1.2179999 1.00000 0.00000             
O2    core 1/6       0.0655286 0.9314040 -1.2179999 1.00000 0.00000             
O2    core 0.0833333 1/6       0.9054292 -1.2179999 1.00000 0.00000             
O2    core 0.9166666 5/6       0.9054292 -1.2179999 1.00000 0.00000             
O2    core 0.7499999 5/6       0.9054292 -1.2179999 1.00000 0.00000             
O2    core 0.5833333 5/6       0.9054292 -1.2179999 1.00000 0.00000             
O2    core 0.4166666 5/6       0.9054292 -1.2179999 1.00000 0.00000             
O2    core 0.2499999 5/6       0.9054292 -1.2179999 1.00000 0.00000             
O2    core 0.0833333 5/6       0.9054292 -1.2179999 1.00000 0.00000             
O2    core 0.9166666 0.5000000 0.9054292 -1.2179999 1.00000 0.00000             
O2    core 0.7499999 0.5000000 0.9054292 -1.2179999 1.00000 0.00000             
O2    core 0.5833333 0.5000000 0.9054292 -1.2179999 1.00000 0.00000             
O2    core 0.4166666 0.5000000 0.9054292 -1.2179999 1.00000 0.00000             
O2    core 0.2499999 0.5000000 0.9054292 -1.2179999 1.00000 0.00000             
O2    core 0.0833333 0.5000000 0.9054292 -1.2179999 1.00000 0.00000             
O2    core 0.9166666 1/6       0.9054292 -1.2179999 1.00000 0.00000             
O2    core 0.7499999 1/6       0.9054292 -1.2179999 1.00000 0.00000             
O2    core 0.5833333 1/6       0.9054292 -1.2179999 1.00000 0.00000             
O2    core 0.4166666 1/6       0.9054292 -1.2179999 1.00000 0.00000             
O2    core 0.2499999 1/6       0.9054292 -1.2179999 1.00000 0.00000             
O2    core 0.0833333 1/3       0.8917766 -1.2179999 1.00000 0.00000             
O2    core 0.9166666 0.0000000 0.8917766 -1.2179999 1.00000 0.00000             
O2    core 0.7499999 0.0000000 0.8917766 -1.2179999 1.00000 0.00000             
O2    core 0.5833333 0.0000000 0.8917766 -1.2179999 1.00000 0.00000             
O2    core 0.4166666 0.0000000 0.8917766 -1.2179999 1.00000 0.00000             
O2    core 0.2499999 0.0000000 0.8917766 -1.2179999 1.00000 0.00000             
O2    core 0.0833333 0.0000000 0.8917766 -1.2179999 1.00000 0.00000             
O2    core 0.9166666 2/3       0.8917766 -1.2179999 1.00000 0.00000             
O2    core 0.7499999 2/3       0.8917766 -1.2179999 1.00000 0.00000             
O2    core 0.5833333 2/3       0.8917766 -1.2179999 1.00000 0.00000             
O2    core 0.4166666 2/3       0.8917766 -1.2179999 1.00000 0.00000             
O2    core 0.2499999 2/3       0.8917766 -1.2179999 1.00000 0.00000             
O2    core 0.0833333 2/3       0.8917766 -1.2179999 1.00000 0.00000             
O2    core 0.9166666 1/3       0.8917766 -1.2179999 1.00000 0.00000             
O2    core 0.7499999 1/3       0.8917766 -1.2179999 1.00000 0.00000             
O2    core 0.5833333 1/3       0.8917766 -1.2179999 1.00000 0.00000             
O2    core 0.4166666 1/3       0.8917766 -1.2179999 1.00000 0.00000             
O2    core 0.2499999 1/3       0.8917766 -1.2179999 1.00000 0.00000             
O2    core 1.0000000 0.1018618 0.8660923 -1.2179999 1.00000 0.00000             
O2    core 1.0000000 0.2314714 0.8660923 -1.2179999 1.00000 0.00000             
O2    core 5/6       0.7685285 0.8660923 -1.2179999 1.00000 0.00000             
O2    core 5/6       0.8981381 0.8660923 -1.2179999 1.00000 0.00000             
O2    core 2/3       0.7685285 0.8660923 -1.2179999 1.00000 0.00000             
O2    core 2/3       0.8981381 0.8660923 -1.2179999 1.00000 0.00000             
O2    core 0.5000000 0.7685285 0.8660923 -1.2179999 1.00000 0.00000             
O2    core 0.5000000 0.8981381 0.8660923 -1.2179999 1.00000 0.00000             
O2    core 1/3       0.7685285 0.8660923 -1.2179999 1.00000 0.00000             
O2    core 1/3       0.8981381 0.8660923 -1.2179999 1.00000 0.00000             
O2    core 1/6       0.7685285 0.8660923 -1.2179999 1.00000 0.00000             
O2    core 1/6       0.8981381 0.8660923 -1.2179999 1.00000 0.00000             
O2    core 1.0000000 0.7685285 0.8660923 -1.2179999 1.00000 0.00000             
O2    core 1.0000000 0.8981381 0.8660923 -1.2179999 1.00000 0.00000             
O2    core 5/6       0.4351952 0.8660923 -1.2179999 1.00000 0.00000             
O2    core 5/6       0.5648047 0.8660923 -1.2179999 1.00000 0.00000             
O2    core 2/3       0.4351952 0.8660923 -1.2179999 1.00000 0.00000             
O2    core 2/3       0.5648047 0.8660923 -1.2179999 1.00000 0.00000             
O2    core 0.5000000 0.4351952 0.8660923 -1.2179999 1.00000 0.00000             
O2    core 0.5000000 0.5648047 0.8660923 -1.2179999 1.00000 0.00000             
O2    core 1/3       0.4351952 0.8660923 -1.2179999 1.00000 0.00000             
O2    core 1/3       0.5648047 0.8660923 -1.2179999 1.00000 0.00000             
O2    core 1/6       0.4351952 0.8660923 -1.2179999 1.00000 0.00000             
O2    core 1/6       0.5648047 0.8660923 -1.2179999 1.00000 0.00000             
O2    core 1.0000000 0.4351952 0.8660923 -1.2179999 1.00000 0.00000             
O2    core 1.0000000 0.5648047 0.8660923 -1.2179999 1.00000 0.00000             