opti   fix molmec phon pot prop comp conv  
cell
  17.724000  19.461000   114.868482  90.000000  90.000000  90.000000
Cartesian
Ti    5.671680   14.271398   38.971218
Ti    2.626977    7.770027   39.210144
Ti   17.397837    7.784028   39.217930
Ti   14.472398    7.781429   39.057095
Ti   11.474666    7.776080   39.040958
Ti    8.552176    7.783675   39.216454
Ti    5.595658    7.770616   39.207092
Ti    2.632384    1.281946   39.152039
Ti   17.406200    1.281508   39.206013
Ti   14.457402    1.283842   39.202641
Ti   11.496355    1.280385   39.198341
Ti    8.542918    1.289004   39.205307
Ti    5.588450    1.282519   39.201458
Ti    2.549793   14.272900   38.903557
Ti   17.393251   14.270368   39.226223
Ti   14.453654   14.243689   39.222965
Ti   11.503123   14.246239   39.218590
Ti    8.561209   14.259279   39.222004
Ti    1.153633    4.519270   38.959248
Ti   15.920364    4.543315   38.957096
Ti   12.972414    4.490111   38.986553
Ti   15.945392   17.499746   38.966846
Ti   10.015922   17.499685   38.962955
Ti    7.051567   17.505560   38.956326
Ti   15.925646   11.031081   38.930328
Ti   10.024049   11.024338   38.925179
Ti    7.070947   11.030188   38.945530
Ti    4.114602    4.515297   38.952740
Ti   10.027143    4.543801   38.952847
Ti    7.071916    4.532557   38.960552
Ti    4.097937   17.533741   39.115242
Ti    1.175237   17.510565   39.151772
Ti   12.981218   17.483801   38.963650
Ti    4.114281   10.972002   38.909985
Ti    1.155413   11.042286   38.944065
Ti   12.974225   10.995254   39.113392
Ti    5.592209   11.014997   35.808792
Ti    2.635595    4.530584   35.838936
Ti   17.405653    4.529168   35.833061
Ti   14.450464    4.525107   35.846294
Ti   11.498646    4.525083   35.844704
Ti    8.543128    4.529222   35.830132
Ti    5.590884    4.532109   35.834614
Ti    2.633884   17.508701   36.003632
Ti   17.409576   17.503643   35.901371
Ti   14.451762   17.498539   35.843323
Ti   11.499064   17.498392   35.844429
Ti    8.547666   17.503925   35.832535
Ti    5.586925   17.508509   35.889286
Ti    2.634485   11.016610   35.812927
Ti   17.406347   11.018787   35.808483
Ti   14.445380   11.010742   35.894272
Ti   11.504424   11.010138   35.892265
Ti    8.542845   11.018661   35.806618
Ti    7.095787   14.261468   35.859394
Ti    4.112781    7.772540   35.923271
Ti    1.162326    7.770114   35.926735
Ti   15.942972    7.766581   35.892227
Ti   12.975537    7.765612   35.889111
Ti   10.005523    7.766284   35.887104
Ti    7.063619    7.770149   35.924217
Ti    4.115492    1.289981   35.925091
Ti    1.156417    1.288127   35.926758
Ti   15.928751    1.281193   35.930763
Ti   12.974878    1.281354   35.928452
Ti   10.020601    1.281702   35.926994
Ti    7.067988    1.290304   35.928383
Ti    4.116608   14.262683   35.870354
Ti    1.126331   14.264579   35.851624
Ti   15.919511   14.254139   35.934059
Ti   12.975087   14.253254   35.940666
Ti   10.030193   14.253992   35.929314
Ti    5.589819   14.260452   32.688946
Ti    2.636507    7.772369   32.724186
Ti   17.408493    7.771407   32.720360
Ti   14.452041    7.770662   32.705311
Ti   11.497972    7.770722   32.703457
Ti    8.541182    7.771384   32.716702
Ti    5.589065    7.772389   32.723316
Ti    2.635851    1.284342   32.738274
Ti   17.406017    1.283387   32.741783
Ti   14.451739    1.283291   32.737144
Ti   11.498166    1.283939   32.732632
Ti    8.544285    1.283732   32.735153
Ti    5.589924    1.284351   32.739056
Ti    2.636000   14.260493   32.685986
Ti   17.399469   14.258263   32.718834
Ti   14.449221   14.257907   32.738411
Ti   11.500369   14.257191   32.733929
Ti    8.550065   14.258000   32.713921
Ti    7.069033   11.015464   32.709480
Ti    4.112606    4.528117   32.729523
Ti    1.159338    4.527142   32.730083
Ti   15.928236    4.527692   32.731098
Ti   12.975058    4.527537   32.732166
Ti   10.021655    4.527944   32.728584
Ti    7.066405    4.527740   32.727619
Ti    4.104651   17.502844   32.788658
Ti    1.165689   17.501085   32.793934
Ti   15.935333   17.501595   32.756268
Ti   12.976675   17.501221   32.737652
Ti   10.021605   17.501484   32.734104
Ti    7.060894   17.501133   32.746586
Ti    4.112623   11.016496   32.707783
Ti    1.156771   11.016021   32.711403
Ti   15.920898   11.012771   32.734894
Ti   12.975087   11.012520   32.755154
Ti   10.028917   11.012612   32.732582
Ti    5.590630   11.015107   29.602928
Ti    2.635952    4.527931   29.623352
Ti   17.405867    4.527699   29.623383
Ti   14.451880    4.527322   29.623383
Ti   11.498026    4.527239   29.621927
Ti    8.543923    4.527546   29.620815
Ti    5.589887    4.527775   29.621838
Ti    2.635585   17.501648   29.667164
Ti   17.409208   17.501635   29.656565
Ti   14.454291   17.501942   29.637852
Ti   11.498359   17.501938   29.629087
Ti    8.542202   17.501657   29.631222
Ti    5.586432   17.501688   29.648901
Ti    2.635251   11.014955   29.604286
Ti   17.403425   11.014737   29.615072
Ti   14.450114   11.014373   29.631584
Ti   11.499697   11.014481   29.630245
Ti    8.546293   11.014875   29.612799
Ti    7.069714   14.258788   29.516874
Ti    4.112836    7.771174   29.527212
Ti    1.159446    7.771324   29.526546
Ti   15.930059    7.771113   29.523039
Ti   12.975051    7.770583   29.519455
Ti   10.019876    7.771114   29.521105
Ti    7.066180    7.771322   29.524733
Ti    4.112610    1.284014   29.545435
Ti    1.159058    1.284091   29.546654
Ti   15.929817    1.283464   29.544098
Ti   12.975541    1.283618   29.540102
Ti   10.020626    1.283616   29.538914
Ti    7.066175    1.283655   29.541670
Ti    4.112703   14.258670   29.511074
Ti    1.155367   14.258354   29.520685
Ti   15.926411   14.258676   29.534367
Ti   12.975443   14.258812   29.539095
Ti   10.023767   14.258519   29.529892
Ti    7.068706   11.015454   26.487688
Ti    5.589951   14.260719   26.238750
Ti    4.112694    4.526575   26.501863
Ti    2.635632    7.770733   26.248404
Ti    1.158922    4.526451   26.502743
Ti   17.405737    7.770819   26.247171
Ti   15.929103    4.526786   26.502474
Ti   14.451991    7.770788   26.244259
Ti   12.975200    4.526805   26.501143
Ti   11.498196    7.770784   26.243486
Ti   10.020984    4.526661   26.500044
Ti    8.544146    7.770823   26.245558
Ti    7.066710    4.526732   26.500492
Ti    5.589829    7.770739   26.247660
Ti    4.110634   17.501905   26.530653
Ti    2.635660    1.282334   26.268833
Ti    1.160030   17.502007   26.534771
Ti   17.406620    1.282423   26.268028
Ti   15.931698   17.502098   26.523470
Ti   14.452898    1.282617   26.264072
Ti   12.976648   17.501949   26.511923
Ti   11.498286    1.282796   26.261141
Ti   10.020511   17.502094   26.508587
Ti    8.543320    1.282623   26.262373
Ti    7.064335   17.502083   26.516056
Ti    5.588974    1.282388   26.266361
Ti    4.112697   11.015669   26.483953
Ti    2.634713   14.260776   26.240685
Ti    1.156912   11.015707   26.489664
Ti   17.404684   14.260520   26.251993
Ti   15.926640   11.015331   26.501690
Ti   14.451896   14.260240   26.259851
Ti   12.975159   11.015285   26.507685
Ti   11.499159   14.260052   26.257236
Ti   10.023388   11.015436   26.499481
Ti    8.545185   14.260313   26.247185
 O2    6.994793   14.201764   40.149208
 O2    4.113134    7.845588   40.203857
 O2    1.149789    7.793660   40.223083
 O2   15.862411    7.795210   40.185501
 O3   12.928720    4.487372   40.900764
 H22   12.937615    3.864650   41.638870
 O2   10.090329    7.799201   40.180916
 O2    7.075756    7.792728   40.219585
 O2    4.100388    1.314769   40.183708
 O2    1.171427    1.354698   40.186543
 O2   15.926462    1.319142   40.214718
 O2   12.973445    1.328828   40.201645
 O2   10.021502    1.277159   40.208549
 O2    7.068094    1.320125   40.209908
 O2    4.098494   14.267499   40.185760
 #H22    4.021593   14.510812   41.119484
 O2    1.258307   14.174174   40.114071
 O2   15.932899   14.226396   40.239239
 O3   12.974798   14.272306   40.223709
 H22   12.974798   14.272306   41.223709
 O2   10.018739   14.267892   40.233109
 O2    2.638234    3.366104   39.092121
 O2   17.389526    3.372365   39.116432
 O2   14.468876    3.355932   39.086781
 O2   11.468014    3.349487   39.086216
 O2    8.554100    3.364907   39.119987
 O2    5.603230    3.365973   39.122749
 O2    2.679250   16.173895   38.908607
 O2   17.375813   16.271835   39.122269
 O2   14.459266   16.311853   39.139854
 O2   11.486428   16.315496   39.130703
 O2    8.524643   16.303614   39.149601
 O2    5.620009   16.224508   39.072899
 O2   17.411160    9.840795   39.123810
 O2    8.539862    9.840706   39.125862
 O2    5.606637    9.859736   39.113674
 O2    2.620496    9.863676   39.117805
 O2   14.534611    9.761213   38.934807
 O2   11.411110    9.758446   38.926155
 O2    5.544578   12.241522   39.113251
 O2    2.640633    5.721829   39.140656
 O2   17.400482    5.727988   39.152275
 O2   14.424771    5.759285   39.117859
 O2   11.516533    5.757514   39.109493
 O2    8.551166    5.726630   39.154850
 O2    5.586993    5.724958   39.136642
 O2   17.361774   18.713324   39.110085
 O2    8.543325   18.674337   39.133659
 O2    5.640944   18.701572   39.097263
 O2    2.698923   12.241907   39.078499
 O2   17.415445   12.201140   39.134098
 O2   14.473828   12.196910   39.123421
 O2   11.462539   12.200459   39.125797
 O2    8.531384   12.206186   39.133526
 O2    2.640365   18.764818   38.928009
 O2   14.443649   18.679827   39.140148
 O2   11.501754   18.675636   39.130955
 O2    7.127922   14.233521   37.771835
 O2    4.114212    7.795989   37.838230
 O2    1.163743    7.776537   37.842068
 O2   15.967318    7.724933   37.801456
 O2   12.975261    7.716134   37.849838
 O2    9.976269    7.722982   37.797375
 O2    7.065140    7.776052   37.841290
 O2    4.145714    1.349368   37.813667
 O2    1.132480    1.349945   37.813873
 O2   15.914087    1.287144   37.831177
 O2   12.969126    1.280260   37.832901
 O2   10.016508    1.272896   37.832996
 O2    7.084688    1.298099   37.831966
 O2    4.140724   14.193163   37.898449
 O2    1.078001   14.188006   37.745365
 O2   15.917593   14.239364   37.845600
 O2   12.969279   14.270316   37.848000
 O2   10.013947   14.253689   37.846741
 O2    7.055921   11.036584   37.078117
 O2    4.118788    4.546115   37.084404
 O2    1.155375    4.550365   37.087070
 O2   15.929867    4.556578   37.086967
 O2   12.971319    4.533550   37.099197
 O2   10.014726    4.553494   37.085663
 O2    7.071878    4.546935   37.089600
 O2    4.172321   17.493420   37.155903
 O2    1.112199   17.480715   37.170818
 O2   15.899098   17.495781   37.098484
 O2   12.969444   17.495123   37.093468
 O2   10.017081   17.494652   37.093060
 O2    7.097283   17.483301   37.091747
 O2    4.118842   11.010880   37.059593
 O2    1.171122   11.033618   37.075439
 O2   15.972322   11.039756   37.069054
 O2   12.971682   11.023750   37.145531
 O2    9.974146   11.040430   37.067547
 O2    5.588990   12.995184   35.894604
 O2    5.590873    9.053292   35.884518
 O2    2.640315    6.504983   35.891640
 O2    2.637330    2.571117   35.877338
 O2   17.416025    6.499438   35.861012
 O2   17.395597    2.570650   35.872517
 O2   14.448516    6.502586   35.885918
 O2   14.447562    2.563718   35.888817
 O2   11.497732    6.502818   35.887939
 O2   11.495325    2.561692   35.892548
 O2    8.532872    6.498028   35.859814
 O2    8.549454    2.566404   35.886967
 O2    5.589072    6.505147   35.890820
 O2    5.600246    2.572321   35.873962
 O2    2.639380    0.020187   35.916439
 O2    2.642948   15.495796   35.952442
 O2   17.404968    0.014486   35.891037
 O2   17.388813   15.527301   35.863533
 O2   14.445721    0.009936   35.885731
 O2   14.445281   15.526992   35.888687
 O2   11.495026    0.007378   35.890232
 O2   11.495832   15.529307   35.892731
 O2    8.543125    0.009484   35.882008
 O2    8.557082   15.531057   35.859196
 O2    5.598662    0.015721   35.889671
 O2    5.593721   15.502915   35.922356
 O2    2.647507   12.996635   35.900196
 O2    2.638727    9.053639   35.885414
 O2   17.397175   12.977377   35.821697
 O2   17.415707    9.048882   35.872753
 O2   14.446486   12.979158   35.897762
 O2   14.450095    9.027576   35.911255
 O2   11.496940   12.980975   35.901566
 O2   11.496098    9.026700   35.911858
 O2    8.547600   12.982109   35.841297
 O2    8.533629    9.049984   35.872433
 O2    7.062490   11.023781   34.614319
 O2    4.113394    4.539337   34.630222
 O2    1.161933    4.533461   34.629829
 O2   15.922212    4.537711   34.632030
 O2   12.973243    4.536545   34.637524
 O2   10.025499    4.533826   34.631374
 O2    7.066357    4.532952   34.628769
 O2    4.093824   17.476334   34.700394
 O2    1.184587   17.484461   34.704891
 O2   15.939175   17.506096   34.652412
 O2   12.973449   17.500645   34.637196
 O2   10.024572   17.504829   34.633976
 O2    7.051589   17.485245   34.648129
 O2    4.113291   11.032096   34.613434
 O2    1.166533   11.023296   34.614784
 O2   15.906286   10.992219   34.633190
 O2   12.973472   10.993380   34.667309
 O2   10.041187   10.996928   34.632710
 O2    7.056446   14.256201   33.941456
 O2    4.114025    7.778726   33.969177
 O2    1.162564    7.777289   33.966515
 O2   15.924212    7.773158   33.955429
 O2   12.973311    7.772360   33.954010
 O2   10.024044    7.773005   33.953373
 O2    7.065021    7.777392   33.964966
 O2    4.114448    1.288497   33.975811
 O2    1.160518    1.289202   33.976387
 O2   15.925018    1.287296   33.975586
 O2   12.971204    1.287520   33.974815
 O2   10.022020    1.286331   33.973797
 O2    7.070783    1.289276   33.974148
 O2    4.113831   14.254434   33.946041
 O2    1.174990   14.256537   33.940376
 O2   15.926921   14.254288   33.967548
 O2   12.971063   14.253198   33.979000
 O2   10.019641   14.255085   33.966660
 O2    5.589540    9.757666   32.722618
 O2    5.590659   12.277974   32.711418
 O2    2.637421    3.269587   32.729359
 O2    2.636710    5.793063   32.726158
 O2   17.404713    3.269677   32.733242
 O2   17.406345    5.791509   32.726517
 O2   14.449957    3.268469   32.732288
 O2   14.450377    5.791332   32.723167
 O2   11.497857    3.268323   32.731178
 O2   11.497740    5.791130   32.723587
 O2    8.544848    3.268935   32.731476
 O2    8.543703    5.791170   32.725643
 O2    5.590594    3.269336   32.729660
 O2    5.590376    5.792746   32.726933
 O2    2.638365   16.231943   32.737469
 O2    2.637069   18.764904   32.755417
 O2   17.412766   16.237305   32.749081
 O2   17.413736   18.761572   32.758423
 O2   14.453609   16.240501   32.743305
 O2   14.452983   18.762234   32.741283
 O2   11.497216   16.239309   32.733501
 O2   11.497838   18.763193   32.731606
 O2    8.541292   16.238880   32.734962
 O2    8.540453   18.759800   32.744125
 O2    5.583527   16.236240   32.742489
 O2    5.584673   18.760105   32.760403
 O2    2.637584    9.757258   32.721565
 O2    2.637416   12.277738   32.710285
 O2   17.406155    9.754838   32.728558
 O2   17.402678   12.272601   32.728096
 O2   14.446947    9.747591   32.720509
 O2   14.446732   12.274091   32.734879
 O2   11.501108    9.747917   32.721191
 O2   11.501051   12.274277   32.734001
 O2    8.543987    9.755164   32.727802
 O2    8.546791   12.273475   32.727402
 O2    7.073379   14.256841   31.468798
 O2    4.113358    7.775945   31.482843
 O2    1.160896    7.775734   31.481356
 O2   15.933320    7.771442   31.475460
 O2   12.974612    7.765906   31.470539
 O2   10.016359    7.771471   31.473816
 O2    7.064772    7.775734   31.480049
 O2    4.114481    1.285482   31.496286
 O2    1.158334    1.287879   31.497019
 O2   15.930207    1.283102   31.496109
 O2   12.975487    1.284283   31.492653
 O2   10.019368    1.283106   31.492205
 O2    7.066085    1.280769   31.494726
 O2    4.114774   14.252576   31.462292
 O2    1.150691   14.249969   31.469492
 O2   15.923640   14.257503   31.486479
 O2   12.975362   14.261360   31.492395
 O2   10.025367   14.257387   31.483402
 O2    7.065629   11.015100   30.813622
 O2    4.113936    4.531132   30.827509
 O2    1.159012    4.530446   30.828209
 O2   15.928585    4.529844   30.828539
 O2   12.974018    4.529333   30.828119
 O2   10.020438    4.529711   30.826675
 O2    7.067511    4.530112   30.826565
 O2    4.117193   17.500393   30.864950
 O2    1.158080   17.499895   30.868467
 O2   15.927352   17.500479   30.850512
 O2   12.973673   17.500238   30.836418
 O2   10.019609   17.500525   30.833864
 O2    7.068267   17.499887   30.843864
 O2    4.113955   11.015364   30.810091
 O2    1.160867   11.014683   30.814859
 O2   15.931831   11.013625   30.829590
 O2   12.973980   11.014136   30.838604
 O2   10.017129   11.013846   30.827988
 O2    5.591402   12.983306   29.556015
 O2    5.589761    9.047675   29.560741
 O2    2.636588    6.497486   29.568365
 O2    2.636548    2.560555   29.578627
 O2   17.407162    6.496806   29.565903
 O2   17.405787    2.560531   29.577705
 O2   14.452518    6.496334   29.564140
 O2   14.452053    2.559902   29.577278
 O2   11.496581    6.496259   29.563427
 O2   11.497429    2.559592   29.576353
 O2    8.542610    6.496714   29.564779
 O2    8.543428    2.559614   29.576822
 O2    5.590000    6.497366   29.567596
 O2    5.590525    2.560169   29.577513
 O2    2.636545    0.008783   29.592560
 O2    2.635525   15.530574   29.579483
 O2   17.407095    0.008748   29.588951
 O2   17.404482   15.532442   29.578035
 O2   14.452349    0.009089   29.581964
 O2   14.451374   15.533743   29.575460
 O2   11.497331    0.009182   29.578165
 O2   11.498101   15.533615   29.572014
 O2    8.542936    0.008447   29.579395
 O2    8.545341   15.532763   29.568966
 O2    5.589626    0.008197   29.585819
 O2    5.590665   15.531302   29.572632
 O2    2.635703   12.983004   29.557028
 O2    2.636836    9.047560   29.561413
 O2   17.403265   12.981702   29.563610
 O2   17.407013    9.046884   29.563362
 O2   14.450667   12.981954   29.574013
 O2   14.451967    9.045250   29.567833
 O2   11.498618   12.982293   29.573467
 O2   11.497108    9.045345   29.567217
 O2    8.545740   12.982608   29.563419
 O2    8.542751    9.046974   29.562376
 O2    7.070049   11.016088   28.358829
 O2    4.113098    4.529009   28.372252
 O2    1.159424    4.528855   28.372995
 O2   15.928895    4.528508   28.372818
 O2   12.974810    4.527822   28.371910
 O2   10.020626    4.527305   28.370789
 O2    7.066712    4.528169   28.371000
 O2    4.108578   17.497925   28.401920
 O2    1.162452   17.499481   28.405441
 O2   15.934542   17.502464   28.393652
 O2   12.977324   17.503578   28.382164
 O2   10.019481   17.502464   28.379221
 O2    7.061587   17.499659   28.387133
 O2    4.113114   11.016958   28.355310
 O2    1.156119   11.015557   28.360552
 O2   15.924062   11.012893   28.372103
 O2   12.974725   11.012330   28.378160
 O2   10.025358   11.014072   28.370304
 O2    7.065788   14.258646   27.614155
 O2    4.113361    7.770474   27.619434
 O2    1.159214    7.770791   27.619164
 O2   15.928475    7.771495   27.617266
 O2   12.974465    7.771757   27.615374
 O2   10.020879    7.771539   27.615950
 O2    7.067111    7.770822   27.617861
 O2    4.113368    1.284067   27.638506
 O2    1.159506    1.283787   27.639446
 O2   15.928885    1.284028   27.636703
 O2   12.974441    1.284594   27.633072
 O2   10.020496    1.284755   27.632141
 O2    7.067082    1.284693   27.634832
 O2    4.113259   14.259740   27.610983
 O2    1.160760   14.259576   27.618006
 O2   15.929761   14.258162   27.627420
 O2   12.974405   14.257155   27.630337
 O2   10.019609   14.257396   27.623461
 O2    5.590924    9.835375   26.327335
 O2    2.636113    3.346212   26.344067
 O2   17.405972    3.346190   26.343872
 O2   14.452088    3.346080   26.341305
 O2   11.497925    3.346037   26.339144
 O2    8.543624    3.346043   26.339203
 O2    5.589917    3.346128   26.341745
 O2    2.635365   16.320452   26.349880
 O2   17.408781   16.321083   26.353815
 O2   14.454760   16.321959   26.351862
 O2   11.498304   16.322124   26.346394
 O2    8.541801   16.321869   26.343096
 O2    5.586797   16.321119   26.345066
 O2    2.634846    9.835339   26.327921
 O2   17.403402    9.834798   26.331455
 O2   14.450414    9.833936   26.333612
 O2   11.499409    9.834041   26.333055
 O2    8.546504    9.834915   26.330145
 O2    5.591115   12.196127   26.322104
 O2    2.635987    5.707697   26.333801
 O2   17.406288    5.707599   26.334385
 O2   14.452131    5.707419   26.334013
 O2   11.497768    5.707304   26.333427
 O2    8.543663    5.707467   26.333055
 O2    5.589755    5.707658   26.333204
 O2    2.635456   18.682821   26.364193
 O2   17.408800   18.682667   26.361197
 O2   14.454617   18.682306   26.352100
 O2   11.498462   18.682140   26.346445
 O2    8.541841   18.681919   26.350096
 O2    5.586685   18.682184   26.359230
 O2    2.634902   12.196052   26.324095
 O2   17.403131   12.196120   26.333826
 O2   14.450421   12.196559   26.340677
 O2   11.499497   12.196595   26.338717
 O2    8.546450   12.196252   26.329683
 O2    7.069692   14.261758   25.241947
 O2    4.112625    7.773514   25.246460
 O2    1.159008    7.772828   25.246136
 O2   15.929560    7.769735   25.244167
 O2   12.975210    7.767507   25.242363
 O2   10.020614    7.769677   25.243048
 O2    7.066517    7.772729   25.245102
 O2    4.111706    1.281501   25.265219
 O2    1.159472    1.282914   25.265991
 O2   15.930922    1.281174   25.263697
 O2   12.976352    1.280867   25.260445
 O2   10.020327    1.280040   25.259712
 O2    7.064977    1.278940   25.262192
 O2    4.111856   14.258689   25.238789
 O2    1.154819   14.257900   25.245087
 O2   15.926334   14.262612   25.254036
 O2   12.976203   14.265444   25.256638
 O2   10.024681   14.263829   25.250626
 O176   12.056149    8.935797   41.224979
 O177    2.570792   17.471781   48.585464
 O176   12.056149    6.546764   41.224979
 O177    4.746591   17.471781   48.585464
 O176    4.282048   17.471781   41.224979
 O177   12.520693    8.935797   48.585464
 O176    2.106249   17.471781   41.224979
 O177   12.520692    6.546764   48.585464
 O171    3.860670   17.471781   51.785725
 O171   12.722671    7.741280   51.785725
 O170    5.430975   14.611597   52.630375
 O170    1.202465   19.137447   50.941074
 O170    6.412258   15.806114   50.941074
 O170    2.396981    0.870963   52.630375
 O170    6.412257   19.137447   50.941074
 O170    1.202465   15.806113   50.941074
 O170    5.430975    0.870963   52.630375
 O170    2.396981   14.611598   52.630375
 O170    4.062648   18.666296   54.985985
 O170   12.301292    7.741281   62.346470
 O170    4.062648   16.277264   54.985985
 O170   14.477091    7.741280   62.346470
 O170   14.012547    7.741281   54.985985
 O170    4.527192   18.666296   62.346470
 O170   11.836749    7.741280   54.985985
 O170    4.527191   16.277264   62.346470
 O170   10.171082    6.075613   52.630375
 O170   14.186358   10.601463   50.941074
 O170   11.152365    4.881097   50.941074
 O170   15.380876    9.406947   52.630375
 O170   14.186359    4.881097   50.941074
 O170   11.152365   10.601463   50.941074
 O170   15.380875    6.075613   52.630375
 O170   10.171082    9.406947   52.630375
 O171   13.591170    7.741280   65.546730
 O171    4.729170   17.471781   65.546730
 O170   15.161475    4.881097   66.391380
 O170   10.932965    9.406947   64.702080
 O170   16.142757    6.075613   64.702080
 O170   12.127481   10.601463   66.391380
 O170   16.142757    9.406947   64.702080
 O170   10.932965    6.075613   64.702080
 O170   15.161476   10.601463   66.391380
 O170   12.127481    4.881097   66.391380
 O170   13.793148    8.935797   68.746986
 O170    4.307792   17.471781   76.107475
 O170   13.793149    6.546764   68.746986
 O170    6.483590   17.471781   76.107475
 O170    6.019047   17.471781   68.746986
 O170   14.257692    8.935797   76.107475
 O170    3.843249   17.471781   68.746986
 O170   14.257691    6.546764   76.107475
 O170    2.177582   15.806114   66.391380
 O170    6.192858    0.870963   64.702080
 O170    3.158864   14.611597   64.702080
 O170    7.387374   19.137447   66.391380
 O170    6.192858   14.611598   64.702080
 O170    3.158864    0.870963   64.702080
 O170    7.387374   15.806113   66.391380
 O170    2.177582   19.137447   66.391380
 O171    5.597670   17.471781   79.307739
 O171   14.459670    7.741280   79.307739
 O170    7.167975   14.611597   80.152390
 O170    2.939465   19.137447   78.463089
 O170    8.149258   15.806114   78.463089
 O170    4.133981    0.870963   80.152390
 O170    8.149257   19.137447   78.463089
 O170    2.939465   15.806113   78.463089
 O170    7.167975    0.870963   80.152390
 O170    4.133981   14.611598   80.152390
 O170    5.799647   18.666296   82.507996
 O173   14.038292    7.741281   89.868484
 O170    5.799648   16.277264   82.507996
 O172   16.214090    7.741280   89.868484
 H21   16.214090    7.741280   90.868484
 O170   15.749547    7.741281   82.507996
 O173    6.264191   18.666296   89.868484
 O170   13.573749    7.741280   82.507996
 O172    6.264190   16.277264   89.868484
 H21    6.264190   16.277264   90.868484
 O170   11.908082    6.075613   80.152390
 O170   15.923358   10.601463   78.463089
 O170   12.889364    4.881097   78.463089
 O170   17.117874    9.406947   80.152390
 O170   15.923359    4.881097   78.463081
 O170   12.889364   10.601463   78.463081
 O170   17.117874    6.075613   80.152390
 O170   11.908082    9.406947   80.152390
 C912   12.241921    9.024149   44.168457
 C912    2.304554   17.471781   45.641987
 C912   12.241920    6.458411   44.168457
 C912    4.641285   17.471781   45.641987
 C912    4.548286   17.471781   44.168457
 C912   12.334920    9.024149   45.641987
 C912    2.211555   17.471781   44.168457
 C912   12.334920    6.458411   45.641987
 C916   12.094676    7.741280   41.835419
 C917    3.620165   17.471781   47.975029
 C916    3.232675   17.471781   41.835419
 C917   12.482164    7.741280   47.975025
 C902   12.195091    7.741280   43.426464
 C902    3.519749   17.471781   46.383980
 C902    3.333091   17.471781   43.426464
 C902   12.381749    7.741280   46.383980
 C912   7.290267   12.486067   52.692852
 C912  16.986708    1.713625   50.878601
 C912   8.344131   13.768936   50.878601
 C912   0.545576    2.996494   52.692852
 C912   8.344131    1.713625   50.878601
 C912  16.986708   13.768936   50.878601
 C912   7.290267    2.996494   52.692852
 C912   0.545576   12.486067   52.692852
 C912    4.248420   18.754648   57.929462
 C912   12.035053    7.741280   59.402992
 C912    4.248420   16.188911   57.929462
 C912   14.371786    7.741280   59.402992
 C912   14.278787    7.741280   57.929462
 C912    4.341419   18.754648   59.402992
 C912   11.942055    7.741280   57.929462
 C912    4.341419   16.188911   59.402992
 C912    8.239210    4.038435   52.692852
 C912   16.037766   12.726994   50.878601
 C912    9.293073    2.755566   50.878601
 C912   17.320633   11.444125   52.692852
 C912   16.037766    2.755566   50.878601
 C912    9.293073   12.726994   50.878601
 C912   17.320633    4.038435   52.692852
 C912    8.239210   11.444125   52.692852
 C913    6.314735   14.777210   51.785725
 C913    1.406605    0.705350   51.785725
 C913    6.314735    0.705350   51.785725
 C913    1.406604   14.777210   51.785725
 C913    4.101175   17.471781   55.596424
 C913   13.350665    7.741280   61.736034
 C913   12.963175    7.741280   55.596424
 C913    4.488664   17.471781   61.736031
 C913   10.268604    5.046710   51.785725
 C913   15.176736   10.435850   51.785725
 C913   15.176735    5.046710   51.785725
 C913   10.268604   10.435851   51.785725
 C902   7.339359   13.652170   51.785725
 C902   0.381980    1.830390   51.785725
 C902   7.339359    1.830390   51.785725
 C902   0.381980   13.652170   51.785725
 C902    4.201591   17.471781   57.187469
 C902   13.250249    7.741281   60.144985
 C902   13.063591    7.741280   57.187469
 C902    4.388249   17.471781   60.144985
 C902    9.243980    3.921670   51.785725
 C902   16.201361   11.560890   51.785725
 C902   16.201361    3.921670   51.785725
 C902    9.243980   11.560890   51.785725
 C912  17.020767    2.755567   66.453857
 C912   8.993207   11.444125   64.639603
 C912   0.350629    4.038435   64.639603
 C912  10.276075   12.726994   66.453857
 C912   0.350630   11.444125   64.639603
 C912   8.993207    4.038435   64.639603
 C912  17.020767   12.726994   66.453857
 C912  10.276075    2.755566   66.453857
 C912   13.978921    9.024149   71.690468
 C912    4.041553   17.471781   73.163994
 C912   13.978920    6.458411   71.690468
 C912    6.378285   17.471781   73.163994
 C912    6.285286   17.471781   71.690468
 C912   14.071919    9.024149   73.163994
 C912    3.948554   17.471781   71.690468
 C912   14.071919    6.458411   73.163994
 C912    0.245709   13.768936   66.453857
 C912    8.044264    2.996494   64.639603
 C912    1.299572   12.486067   64.639603
 C912    9.327133    1.713625   66.453857
 C912    8.044264   12.486067   64.639603
 C912    1.299572    2.996494   64.639603
 C912    9.327133   13.768936   66.453857
 C912    0.245709    1.713625   66.453857
 C913  16.045235    5.046710   65.546730
 C913   11.137105   10.435850   65.546730
 C913   16.045235   10.435850   65.546730
 C913   11.137105    5.046710   65.546730
 C913   13.831676    7.741280   69.357430
 C913    5.357164   17.471781   75.497040
 C913    4.969674   17.471781   69.357430
 C913   14.219164    7.741280   75.497040
 C913    2.275104   14.777209   65.546730
 C913    7.183235    0.705350   65.546730
 C913    7.183234   14.777209   65.546730
 C913    2.275104    0.705351   65.546730
 C902  17.069859    3.921670   65.546730
 C902  10.112480   11.560890   65.546730
 C902  17.069859   11.560890   65.546730
 C902  10.112481    3.921670   65.546730
 C902   13.932091    7.741280   70.948479
 C902    5.256749   17.471781   73.905991
 C902    5.070090   17.471781   70.948479
 C902   14.118749    7.741280   73.905991
 C902    1.250480   13.652170   65.546730
 C902    8.207859    1.830390   65.546730