opti fix molmec phon pot prop comp conv  
cell
  17.724000  19.461000  85.817500  90.000000  90.000000  90.000000
fractional  1   
Ti    core 0.3200000 0.7333332 0.4541173 2.43599999 1.00000 0.00000             
Ti    core 0.1487778 0.3992209 0.4568588 2.43599999 1.00000 0.00000             
Ti    core 0.9819891 0.3997639 0.4568599 2.43599999 1.00000 0.00000             
Ti    core 0.8150608 0.3998826 0.4569552 2.43599999 1.00000 0.00000             
Ti    core 0.6502706 0.3993845 0.4548040 2.43599999 1.00000 0.00000             
Ti    core 0.4811662 0.4000490 0.4551572 2.43599999 1.00000 0.00000             
Ti    core 0.3160972 0.3994218 0.4569208 2.43599999 1.00000 0.00000             
Ti    core 0.1486290 0.0658342 0.4561890 2.43599999 1.00000 0.00000             
Ti    core 0.9821811 0.0658842 0.4567970 2.43599999 1.00000 0.00000             
Ti    core 0.8155561 0.0662080 0.4568212 2.43599999 1.00000 0.00000             
Ti    core 0.6489100 0.0657339 0.4567216 2.43599999 1.00000 0.00000             
Ti    core 0.4818518 0.0659050 0.4567441 2.43599999 1.00000 0.00000             
Ti    core 0.3154334 0.0658270 0.4567671 2.43599999 1.00000 0.00000             
Ti    core 0.1438947 0.7333446 0.4532802 2.43599999 1.00000 0.00000             
Ti    core 0.9813581 0.7331599 0.4569711 2.43599999 1.00000 0.00000             
Ti    core 0.8155171 0.7326877 0.4569465 2.43599999 1.00000 0.00000             
Ti    core 0.6491316 0.7320071 0.4569419 2.43599999 1.00000 0.00000             
Ti    core 0.4830285 0.7318256 0.4570566 2.43599999 1.00000 0.00000             
Ti    core 0.0654211 0.2322598 0.4539209 2.43599999 1.00000 0.00000             
Ti    core 0.8984963 0.2328952 0.4539554 2.43599999 1.00000 0.00000             
Ti    core 0.7317404 0.2333701 0.4538546 2.43599999 1.00000 0.00000             
Ti    core 0.8996232 0.8993336 0.4539427 2.43599999 1.00000 0.00000             
Ti    core 0.5650738 0.8983130 0.4539531 2.43599999 1.00000 0.00000             
Ti    core 0.3978292 0.8993340 0.4539753 2.43599999 1.00000 0.00000             
Ti    core 0.8985571 0.5663820 0.4537932 2.43599999 1.00000 0.00000             
Ti    core 0.5654712 0.5649111 0.4556980 2.43599999 1.00000 0.00000             
Ti    core 0.3989651 0.5670243 0.4535876 2.43599999 1.00000 0.00000             
Ti    core 0.2324891 0.2319059 0.4538787 2.43599999 1.00000 0.00000             
Ti    core 0.5655257 0.2307041 0.4542565 2.43599999 1.00000 0.00000             
Ti    core 0.3992927 0.2334987 0.4539099 2.43599999 1.00000 0.00000             
Ti    core 0.2310084 0.9008720 0.4559037 2.43599999 1.00000 0.00000             
Ti    core 0.0660966 0.8997917 0.4560025 2.43599999 1.00000 0.00000             
Ti    core 0.7323879 0.8991921 0.4540038 2.43599999 1.00000 0.00000             
Ti    core 0.2323980 0.5639014 0.4532986 2.43599999 1.00000 0.00000             
Ti    core 0.0654503 0.5672819 0.4538146 2.43599999 1.00000 0.00000             
Ti    core 0.7319649 0.5665158 0.4535361 2.43599999 1.00000 0.00000             
Ti    core 0.3154791 0.5661102 0.4170576 2.43599999 1.00000 0.00000             
Ti    core 0.1488262 0.2327744 0.4175787 2.43599999 1.00000 0.00000             
Ti    core 0.9820729 0.2328352 0.4175791 2.43599999 1.00000 0.00000             
Ti    core 0.8155352 0.2326957 0.4174776 2.43599999 1.00000 0.00000             
Ti    core 0.6487518 0.2324921 0.4176419 2.43599999 1.00000 0.00000             
Ti    core 0.4822359 0.2324939 0.4176517 2.43599999 1.00000 0.00000             
Ti    core 0.3154803 0.2327150 0.4174609 2.43599999 1.00000 0.00000             
Ti    core 0.1487188 0.8996523 0.4194855 2.43599999 1.00000 0.00000             
Ti    core 0.9823025 0.8995250 0.4182232 2.43599999 1.00000 0.00000             
Ti    core 0.8153875 0.8993371 0.4175937 2.43599999 1.00000 0.00000             
Ti    core 0.6488251 0.8991221 0.4176359 2.43599999 1.00000 0.00000             
Ti    core 0.4822719 0.8991941 0.4175237 2.43599999 1.00000 0.00000             
Ti    core 0.3152641 0.8994980 0.4182287 2.43599999 1.00000 0.00000             
Ti    core 0.1486020 0.5660584 0.4172698 2.43599999 1.00000 0.00000             
Ti    core 0.9820322 0.5660219 0.4173928 2.43599999 1.00000 0.00000             
Ti    core 0.8156562 0.5662001 0.4172752 2.43599999 1.00000 0.00000             
Ti    core 0.6484915 0.5657397 0.4181795 2.43599999 1.00000 0.00000             
Ti    core 0.4825984 0.5657055 0.4181353 2.43599999 1.00000 0.00000             
Ti    core 0.4004766 0.7323582 0.4178635 2.43599999 1.00000 0.00000             
Ti    core 0.2319715 0.3993805 0.4185640 2.43599999 1.00000 0.00000             
Ti    core 0.0655011 0.3992269 0.4185977 2.43599999 1.00000 0.00000             
Ti    core 0.8990350 0.3994429 0.4185991 2.43599999 1.00000 0.00000             
Ti    core 0.7330314 0.3990217 0.4181248 2.43599999 1.00000 0.00000             
Ti    core 0.5653954 0.3990312 0.4181461 2.43599999 1.00000 0.00000             
Ti    core 0.3980832 0.3988305 0.4181958 2.43599999 1.00000 0.00000             
Ti    core 0.2322824 0.0661925 0.4185824 2.43599999 1.00000 0.00000             
Ti    core 0.0653311 0.0662186 0.4185958 2.43599999 1.00000 0.00000             
Ti    core 0.8987546 0.0660932 0.4186447 2.43599999 1.00000 0.00000             
Ti    core 0.7321348 0.0658270 0.4186158 2.43599999 1.00000 0.00000             
Ti    core 0.5654541 0.0658150 0.4185992 2.43599999 1.00000 0.00000             
Ti    core 0.3988234 0.0659759 0.4186129 2.43599999 1.00000 0.00000             
Ti    core 0.2322881 0.7329537 0.4179441 2.43599999 1.00000 0.00000             
Ti    core 0.0635669 0.7328581 0.4177071 2.43599999 1.00000 0.00000             
Ti    core 0.8982868 0.7328137 0.4186171 2.43599999 1.00000 0.00000             
Ti    core 0.7321471 0.7324077 0.4186608 2.43599999 1.00000 0.00000             
Ti    core 0.5659898 0.7323823 0.4187166 2.43599999 1.00000 0.00000             
Ti    core 0.3155021 0.7326457 0.3809369 2.43599999 1.00000 0.00000             
Ti    core 0.1487538 0.3993551 0.3812831 2.43599999 1.00000 0.00000             
Ti    core 0.9822097 0.3993457 0.3812979 2.43599999 1.00000 0.00000             
Ti    core 0.8156490 0.3993040 0.3812126 2.43599999 1.00000 0.00000             
Ti    core 0.6488128 0.3992701 0.3810283 2.43599999 1.00000 0.00000             
Ti    core 0.4821389 0.3992652 0.3810424 2.43599999 1.00000 0.00000             
Ti    core 0.3153529 0.3993139 0.3812160 2.43599999 1.00000 0.00000             
Ti    core 0.1487973 0.0659704 0.3814441 2.43599999 1.00000 0.00000             
Ti    core 0.9821450 0.0659623 0.3814746 2.43599999 1.00000 0.00000             
Ti    core 0.8154549 0.0659474 0.3814285 2.43599999 1.00000 0.00000             
Ti    core 0.6488050 0.0659486 0.3813759 2.43599999 1.00000 0.00000             
Ti    core 0.4821534 0.0659067 0.3814065 2.43599999 1.00000 0.00000             
Ti    core 0.3154719 0.0659283 0.3814608 2.43599999 1.00000 0.00000             
Ti    core 0.1487932 0.7327454 0.3808299 2.43599999 1.00000 0.00000             
Ti    core 0.9818131 0.7327301 0.3811371 2.43599999 1.00000 0.00000             
Ti    core 0.8153326 0.7326284 0.3814020 2.43599999 1.00000 0.00000             
Ti    core 0.6488337 0.7325740 0.3813884 2.43599999 1.00000 0.00000             
Ti    core 0.4824944 0.7326029 0.3811911 2.43599999 1.00000 0.00000             
Ti    core 0.3992857 0.5659258 0.3813031 2.43599999 1.00000 0.00000             
Ti    core 0.2321035 0.2325955 0.3813341 2.43599999 1.00000 0.00000             
Ti    core 0.0654789 0.2326562 0.3813618 2.43599999 1.00000 0.00000             
Ti    core 0.8988575 0.2326203 0.3813405 2.43599999 1.00000 0.00000             
Ti    core 0.7321055 0.2326486 0.3813358 2.43599999 1.00000 0.00000             
Ti    core 0.5654717 0.2326141 0.3813658 2.43599999 1.00000 0.00000             
Ti    core 0.3988612 0.2326388 0.3813417 2.43599999 1.00000 0.00000             
Ti    core 0.2316929 0.8992893 0.3820524 2.43599999 1.00000 0.00000             
Ti    core 0.0658729 0.8993299 0.3820609 2.43599999 1.00000 0.00000             
Ti    core 0.8991374 0.8993228 0.3816136 2.43599999 1.00000 0.00000             
Ti    core 0.7321980 0.8992945 0.3814227 2.43599999 1.00000 0.00000             
Ti    core 0.5654722 0.8992592 0.3814021 2.43599999 1.00000 0.00000             
Ti    core 0.3984376 0.8992371 0.3815719 2.43599999 1.00000 0.00000             
Ti    core 0.2321322 0.5659839 0.3810734 2.43599999 1.00000 0.00000             
Ti    core 0.0653599 0.5660965 0.3811449 2.43599999 1.00000 0.00000             
Ti    core 0.8987217 0.5659247 0.3812038 2.43599999 1.00000 0.00000             
Ti    core 0.7317914 0.5658648 0.3813993 2.43599999 1.00000 0.00000             
Ti    core 0.5655507 0.5658380 0.3816054 2.43599999 1.00000 0.00000             
Ti    core 0.3155943 0.5659706 0.3449692 2.43599999 1.00000 0.00000             
Ti    core 0.1488059 0.2326450 0.3451490 2.43599999 1.00000 0.00000             
Ti    core 0.9821501 0.2326349 0.3451494 2.43599999 1.00000 0.00000             
Ti    core 0.8154806 0.2326240 0.3451310 2.43599999 1.00000 0.00000             
Ti    core 0.6488000 0.2326096 0.3451295 2.43599999 1.00000 0.00000             
Ti    core 0.4821471 0.2326148 0.3451328 2.43599999 1.00000 0.00000             
Ti    core 0.3154826 0.2326340 0.3451299 2.43599999 1.00000 0.00000             
Ti    core 0.1488090 0.8992970 0.3456528 2.43599999 1.00000 0.00000             
Ti    core 0.9823249 0.8993015 0.3455047 2.43599999 1.00000 0.00000             
Ti    core 0.8155873 0.8993115 0.3452924 2.43599999 1.00000 0.00000             
Ti    core 0.6488136 0.8993120 0.3452099 2.43599999 1.00000 0.00000             
Ti    core 0.4820242 0.8992983 0.3452544 2.43599999 1.00000 0.00000             
Ti    core 0.3152766 0.8992941 0.3454653 2.43599999 1.00000 0.00000             
Ti    core 0.1488032 0.5659798 0.3449237 2.43599999 1.00000 0.00000             
Ti    core 0.9820834 0.5659846 0.3449864 2.43599999 1.00000 0.00000             
Ti    core 0.8153653 0.5659585 0.3450837 2.43599999 1.00000 0.00000             
Ti    core 0.6487373 0.5659543 0.3452220 2.43599999 1.00000 0.00000             
Ti    core 0.4822620 0.5659659 0.3451744 2.43599999 1.00000 0.00000             
Ti    core 0.3989569 0.7326578 0.3439496 2.43599999 1.00000 0.00000             
Ti    core 0.2321020 0.3993038 0.3440097 2.43599999 1.00000 0.00000             
Ti    core 0.0654702 0.3992993 0.3440413 2.43599999 1.00000 0.00000             
Ti    core 0.8988583 0.3993055 0.3440215 2.43599999 1.00000 0.00000             
Ti    core 0.7322181 0.3992843 0.3439623 2.43599999 1.00000 0.00000             
Ti    core 0.5654772 0.3992781 0.3439235 2.43599999 1.00000 0.00000             
Ti    core 0.3987473 0.3992939 0.3439565 2.43599999 1.00000 0.00000             
Ti    core 0.2321255 0.0659670 0.3442412 2.43599999 1.00000 0.00000             
Ti    core 0.0654850 0.0659510 0.3442493 2.43599999 1.00000 0.00000             
Ti    core 0.8988531 0.0659374 0.3442159 2.43599999 1.00000 0.00000             
Ti    core 0.7321705 0.0659435 0.3441717 2.43599999 1.00000 0.00000             
Ti    core 0.5654518 0.0659299 0.3441643 2.43599999 1.00000 0.00000             
Ti    core 0.3987600 0.0659302 0.3441997 2.43599999 1.00000 0.00000             
Ti    core 0.2321712 0.7326401 0.3438584 2.43599999 1.00000 0.00000             
Ti    core 0.0653163 0.7326586 0.3439211 2.43599999 1.00000 0.00000             
Ti    core 0.8986582 0.7326634 0.3440555 2.43599999 1.00000 0.00000             
Ti    core 0.7321289 0.7326459 0.3441358 2.43599999 1.00000 0.00000             
Ti    core 0.5655935 0.7326674 0.3440769 2.43599999 1.00000 0.00000             
Ti    core 0.3989406 0.5660037 0.3086963 2.43599999 1.00000 0.00000             
Ti    core 0.3154976 0.7327548 0.3057425 2.43599999 1.00000 0.00000             
Ti    core 0.2321312 0.2325695 0.3087754 2.43599999 1.00000 0.00000             
Ti    core 0.1487974 0.3992764 0.3058223 2.43599999 1.00000 0.00000             
Ti    core 0.0654785 0.2325785 0.3087848 2.43599999 1.00000 0.00000             
Ti    core 0.9821367 0.3992762 0.3058286 2.43599999 1.00000 0.00000             
Ti    core 0.8988257 0.2325850 0.3087757 2.43599999 1.00000 0.00000             
Ti    core 0.8154809 0.3992799 0.3058016 2.43599999 1.00000 0.00000             
Ti    core 0.7321518 0.2325808 0.3087597 2.43599999 1.00000 0.00000             
Ti    core 0.6488226 0.3992788 0.3057595 2.43599999 1.00000 0.00000             
Ti    core 0.5654722 0.2325901 0.3087557 2.43599999 1.00000 0.00000             
Ti    core 0.4821526 0.3992802 0.3057546 2.43599999 1.00000 0.00000             
Ti    core 0.3988012 0.2325888 0.3087629 2.43599999 1.00000 0.00000             
Ti    core 0.3154721 0.3992813 0.3057913 2.43599999 1.00000 0.00000             
Ti    core 0.2320304 0.8993186 0.3091186 2.43599999 1.00000 0.00000             
Ti    core 0.1487987 0.0658740 0.3060569 2.43599999 1.00000 0.00000             
Ti    core 0.0655548 0.8993122 0.3091386 2.43599999 1.00000 0.00000             
Ti    core 0.9821857 0.0658768 0.3060428 2.43599999 1.00000 0.00000             
Ti    core 0.8989576 0.8993237 0.3089980 2.43599999 1.00000 0.00000             
Ti    core 0.8155255 0.0658899 0.3059962 2.43599999 1.00000 0.00000             
Ti    core 0.7322178 0.8993245 0.3088774 2.43599999 1.00000 0.00000             
Ti    core 0.6488160 0.0658978 0.3059663 2.43599999 1.00000 0.00000             
Ti    core 0.5654308 0.8993132 0.3088574 2.43599999 1.00000 0.00000             
Ti    core 0.4821024 0.0658877 0.3059854 2.43599999 1.00000 0.00000             
Ti    core 0.3986560 0.8993213 0.3089579 2.43599999 1.00000 0.00000             
Ti    core 0.3154250 0.0658786 0.3060323 2.43599999 1.00000 0.00000             
Ti    core 0.2321917 0.5660176 0.3085905 2.43599999 1.00000 0.00000             
Ti    core 0.1487811 0.7327667 0.3057254 2.43599999 1.00000 0.00000             
Ti    core 0.0654256 0.5660185 0.3086026 2.43599999 1.00000 0.00000             
Ti    core 0.9820934 0.7327629 0.3058166 2.43599999 1.00000 0.00000             
Ti    core 0.8987147 0.5660028 0.3086770 2.43599999 1.00000 0.00000             
Ti    core 0.8154507 0.7327412 0.3059116 2.43599999 1.00000 0.00000             
Ti    core 0.7320600 0.5660025 0.3087736 2.43599999 1.00000 0.00000             
Ti    core 0.6488308 0.7327295 0.3059179 2.43599999 1.00000 0.00000             
Ti    core 0.5655171 0.5659999 0.3088043 2.43599999 1.00000 0.00000             
Ti    core 0.4821894 0.7327409 0.3058371 2.43599999 1.00000 0.00000             
O2    core 0.3945129 0.7303200 0.4678576 -1.2179999 1.00000 0.00000             
O2    core 0.2327044 0.4028598 0.4685375 -1.2179999 1.00000 0.00000             
O2    core 0.0655287 0.4005004 0.4685704 -1.2179999 1.00000 0.00000             
O2    core 0.8982993 0.4004406 0.4686372 -1.2179999 1.00000 0.00000             
O3    core 0.7279681 0.4005691 0.4681668 
H22    core 0.7279681 0.4005691 0.4781668
O2    core 0.5670605 0.2310500 0.4765660 
#H22   core 0.5668960 0.1999628 0.4853364 0.12000000 1.00000 0.00000             
O2    core 0.4024538 0.4005147 0.4682370 -1.2179999 1.00000 0.00000             
O2    core 0.2314602 0.0678925 0.4681998 -1.2179999 1.00000 0.00000             
O2    core 0.0661646 0.0692961 0.4682367 -1.2179999 1.00000 0.00000             
O2    core 0.8986528 0.0686199 0.4685397 -1.2179999 1.00000 0.00000             
O2    core 0.7319855 0.0658294 0.4685029 -1.2179999 1.00000 0.00000             
O2    core 0.5654245 0.0679560 0.4683974 -1.2179999 1.00000 0.00000             
O2    core 0.3988758 0.0668522 0.4685261 -1.2179999 1.00000 0.00000             
O3    core 0.2310656 0.7334007 0.4682427 -0.3380000 1.00000 0.00000             
H22   core 0.2272018 0.7461233 0.4791174 0.12000000 1.00000 0.00000             
O2    core 0.0708493 0.7280016 0.4673606 -1.2179999 1.00000 0.00000             
O2    core 0.8988965 0.7302596 0.4687800 -1.2179999 1.00000 0.00000             
O2    core 0.7323326 0.7330669 0.4686706 -1.2179999 1.00000 0.00000             
O2    core 0.5655900 0.7333097 0.4687571 -1.2179999 1.00000 0.00000             
O2    core 0.1490518 0.1729298 0.4554846 -1.2179999 1.00000 0.00000             
O2    core 0.9814400 0.1731096 0.4557687 -1.2179999 1.00000 0.00000             
O2    core 0.8147074 0.1729334 0.4557807 -1.2179999 1.00000 0.00000             
O2    core 0.6502070 0.1720892 0.4554296 -1.2179999 1.00000 0.00000             
O2    core 0.4809755 0.1723399 0.4554409 -1.2179999 1.00000 0.00000             
O2    core 0.3165027 0.1730963 0.4558352 -1.2179999 1.00000 0.00000             
O2    core 0.1509642 0.8310220 0.4533334 -1.2179999 1.00000 0.00000             
O2    core 0.9799739 0.8359715 0.4557295 -1.2179999 1.00000 0.00000             
O2    core 0.8156840 0.8383273 0.4560360 -1.2179999 1.00000 0.00000             
O2    core 0.6487934 0.8383154 0.4559256 -1.2179999 1.00000 0.00000             
O2    core 0.4808541 0.8375084 0.4561634 -1.2179999 1.00000 0.00000             
O2    core 0.3166710 0.8337326 0.4553488 -1.2179999 1.00000 0.00000             
O2    core 0.9823296 0.5059130 0.4557659 -1.2179999 1.00000 0.00000             
O2    core 0.4772806 0.5020008 0.4536081 -1.2179999 1.00000 0.00000             
O2    core 0.3162603 0.5063148 0.4558300 -1.2179999 1.00000 0.00000             
O2    core 0.1482592 0.5068140 0.4557897 -1.2179999 1.00000 0.00000             
O2    core 0.8153883 0.5051197 0.4558800 -1.2179999 1.00000 0.00000             
O2    core 0.6533402 0.5014068 0.4535992 -1.2179999 1.00000 0.00000             
O2    core 0.3125154 0.6291474 0.4557615 -1.2179999 1.00000 0.00000             
O2    core 0.1494501 0.2939704 0.4560412 -1.2179999 1.00000 0.00000             
O2    core 0.9821295 0.2941027 0.4559586 -1.2179999 1.00000 0.00000             
O2    core 0.8148348 0.2942298 0.4562222 -1.2179999 1.00000 0.00000             
O2    core 0.6475225 0.2957966 0.4556599 -1.2179999 1.00000 0.00000             
O2    core 0.4835137 0.2959656 0.4558040 -1.2179999 1.00000 0.00000             
O2    core 0.3156129 0.2943547 0.4562227 -1.2179999 1.00000 0.00000             
O2    core 0.9793719 0.9617275 0.4555902 -1.2179999 1.00000 0.00000             
O2    core 0.4824304 0.9593403 0.4560082 -1.2179999 1.00000 0.00000             
O2    core 0.3180676 0.9607145 0.4556461 -1.2179999 1.00000 0.00000             
O2    core 0.1522765 0.6290089 0.4553084 -1.2179999 1.00000 0.00000             
O2    core 0.9823137 0.6267651 0.4559087 -1.2179999 1.00000 0.00000             
O2    core 0.8154332 0.6265901 0.4558284 -1.2179999 1.00000 0.00000             
O2    core 0.6501435 0.6268408 0.4558430 -1.2179999 1.00000 0.00000             
O2    core 0.4800400 0.6272881 0.4559820 -1.2179999 1.00000 0.00000             
O2    core 0.1489277 0.9641812 0.4535757 -1.2179999 1.00000 0.00000             
O2    core 0.8153257 0.9599902 0.4559880 -1.2179999 1.00000 0.00000             
O2    core 0.6482876 0.9595889 0.4559331 -1.2179999 1.00000 0.00000             
O2    core 0.4018993 0.7312232 0.4401210 -1.2179999 1.00000 0.00000             
O2    core 0.2323466 0.4005771 0.4409118 -1.2179999 1.00000 0.00000             
O2    core 0.0658807 0.3996072 0.4408828 -1.2179999 1.00000 0.00000             
O2    core 0.8988182 0.3995697 0.4409132 -1.2179999 1.00000 0.00000             
O2    core 0.7344398 0.3966579 0.4403755 -1.2179999 1.00000 0.00000             
O2    core 0.5652295 0.3966441 0.4410119 -1.2179999 1.00000 0.00000             
O2    core 0.3966940 0.3969216 0.4404735 -1.2179999 1.00000 0.00000             
O2    core 0.2339945 0.0693065 0.4405880 -1.2179999 1.00000 0.00000             
O2    core 0.0639811 0.0692981 0.4405861 -1.2179999 1.00000 0.00000             
O2    core 0.8976780 0.0668312 0.4408031 -1.2179999 1.00000 0.00000             
O2    core 0.7319994 0.0655119 0.4408182 -1.2179999 1.00000 0.00000             
O2    core 0.5654294 0.0656395 0.4407997 -1.2179999 1.00000 0.00000             
O2    core 0.3995291 0.0659093 0.4407797 -1.2179999 1.00000 0.00000             
O2    core 0.2336164 0.7292739 0.4415719 -1.2179999 1.00000 0.00000             
O2    core 0.0607597 0.7290869 0.4397780 -1.2179999 1.00000 0.00000             
O2    core 0.8977688 0.7318072 0.4409101 -1.2179999 1.00000 0.00000             
O2    core 0.7322689 0.7323631 0.4409245 -1.2179999 1.00000 0.00000             
O2    core 0.5654884 0.7332568 0.4410212 -1.2179999 1.00000 0.00000             
O2    core 0.3960792 0.5682044 0.4319219 -1.2179999 1.00000 0.00000             
O2    core 0.2326575 0.2336868 0.4320976 -1.2179999 1.00000 0.00000             
O2    core 0.0654497 0.2336522 0.4321130 -1.2179999 1.00000 0.00000             
O2    core 0.8983824 0.2336136 0.4321437 -1.2179999 1.00000 0.00000             
O2    core 0.7322923 0.2339396 0.4320965 -1.2179999 1.00000 0.00000             
O2    core 0.5654733 0.2329049 0.4322659 -1.2179999 1.00000 0.00000             
O2    core 0.3986549 0.2341371 0.4321255 -1.2179999 1.00000 0.00000             
O2    core 0.2353185 0.8988121 0.4329701 -1.2179999 1.00000 0.00000             
O2    core 0.0626687 0.8982866 0.4330339 -1.2179999 1.00000 0.00000             
O2    core 0.8971031 0.8989611 0.4321888 -1.2179999 1.00000 0.00000             
O2    core 0.7318620 0.8992331 0.4321985 -1.2179999 1.00000 0.00000             
O2    core 0.5652834 0.8986175 0.4321764 -1.2179999 1.00000 0.00000             
O2    core 0.4004986 0.8983498 0.4322302 -1.2179999 1.00000 0.00000             
O2    core 0.2323376 0.5656717 0.4317430 -1.2179999 1.00000 0.00000             
O2    core 0.0660237 0.5670105 0.4320322 -1.2179999 1.00000 0.00000             
O2    core 0.8990987 0.5660804 0.4320023 -1.2179999 1.00000 0.00000             
O2    core 0.7342354 0.5669105 0.4318803 -1.2179999 1.00000 0.00000             
O2    core 0.5651405 0.5667279 0.4327933 -1.2179999 1.00000 0.00000             
O2    core 0.3150406 0.6678713 0.4180682 -1.2179999 1.00000 0.00000             
O2    core 0.3154184 0.4650483 0.4179246 -1.2179999 1.00000 0.00000             
O2    core 0.1489522 0.3342313 0.4181924 -1.2179999 1.00000 0.00000             
O2    core 0.1489211 0.1320842 0.4180223 -1.2179999 1.00000 0.00000             
O2    core 0.9821871 0.3341843 0.4181618 -1.2179999 1.00000 0.00000             
O2    core 0.9816363 0.1321374 0.4179891 -1.2179999 1.00000 0.00000             
O2    core 0.8160463 0.3338375 0.4178019 -1.2179999 1.00000 0.00000             
O2    core 0.8150573 0.1318512 0.4181223 -1.2179999 1.00000 0.00000             
O2    core 0.6486190 0.3341321 0.4181559 -1.2179999 1.00000 0.00000             
O2    core 0.6487521 0.1316044 0.4181987 -1.2179999 1.00000 0.00000             
O2    core 0.4822891 0.3341224 0.4181241 -1.2179999 1.00000 0.00000             
O2    core 0.4822866 0.1316942 0.4181633 -1.2179999 1.00000 0.00000             
O2    core 0.3149176 0.3340018 0.4178689 -1.2179999 1.00000 0.00000             
O2    core 0.3161430 0.1320674 0.4179631 -1.2179999 1.00000 0.00000             
O2    core 0.1489332 0.0010050 0.4184744 -1.2179999 1.00000 0.00000             
O2    core 0.1490541 0.7962241 0.4188884 -1.2179999 1.00000 0.00000             
O2    core 0.9819381 0.0008407 0.4181857 -1.2179999 1.00000 0.00000             
O2    core 0.9811953 0.7978729 0.4178196 -1.2179999 1.00000 0.00000             
O2    core 0.8152215 0.0006021 0.4181030 -1.2179999 1.00000 0.00000             
O2    core 0.8149864 0.7979782 0.4181366 -1.2179999 1.00000 0.00000             
O2    core 0.6486544 0.0003475 0.4181715 -1.2179999 1.00000 0.00000             
O2    core 0.6488928 0.7979358 0.4181996 -1.2179999 1.00000 0.00000             
O2    core 0.4822044 0.0003299 0.4180896 -1.2179999 1.00000 0.00000             
O2    core 0.4827765 0.7978668 0.4178129 -1.2179999 1.00000 0.00000             
O2    core 0.3158242 0.0006435 0.4181555 -1.2179999 1.00000 0.00000             
O2    core 0.3157075 0.7965654 0.4185721 -1.2179999 1.00000 0.00000             
O2    core 0.1492756 0.6678135 0.4182881 -1.2179999 1.00000 0.00000             
O2    core 0.1488117 0.4651913 0.4181161 -1.2179999 1.00000 0.00000             
O2    core 0.9812469 0.6666464 0.4175177 -1.2179999 1.00000 0.00000             
O2    core 0.9825549 0.4650610 0.4181679 -1.2179999 1.00000 0.00000             
O2    core 0.8155711 0.6671366 0.4179548 -1.2179999 1.00000 0.00000             
O2    core 0.8157318 0.4648015 0.4179519 -1.2179999 1.00000 0.00000             
O2    core 0.6488202 0.6670002 0.4182972 -1.2179999 1.00000 0.00000             
O2    core 0.6486086 0.4637978 0.4184329 -1.2179999 1.00000 0.00000             
O2    core 0.4828017 0.6667825 0.4178994 -1.2179999 1.00000 0.00000             
O2    core 0.4819294 0.4640501 0.4184029 -1.2179999 1.00000 0.00000             
O2    core 0.3998600 0.5658401 0.4034916 -1.2179999 1.00000 0.00000             
O2    core 0.2320246 0.2329243 0.4034718 -1.2179999 1.00000 0.00000             
O2    core 0.0654954 0.2332342 0.4035097 -1.2179999 1.00000 0.00000             
O2    core 0.8988839 0.2328354 0.4034783 -1.2179999 1.00000 0.00000             
O2    core 0.7317892 0.2329628 0.4035034 -1.2179999 1.00000 0.00000             
O2    core 0.5654920 0.2330796 0.4035746 -1.2179999 1.00000 0.00000             
O2    core 0.3992133 0.2331878 0.4035083 -1.2179999 1.00000 0.00000             
O2    core 0.2310648 0.8978966 0.4043326 -1.2179999 1.00000 0.00000             
O2    core 0.0669193 0.8985044 0.4043241 -1.2179999 1.00000 0.00000             
O2    core 0.8993109 0.8995019 0.4037061 -1.2179999 1.00000 0.00000             
O2    core 0.7320074 0.8992943 0.4035603 -1.2179999 1.00000 0.00000             
O2    core 0.5656356 0.8993960 0.4035382 -1.2179999 1.00000 0.00000             
O2    core 0.3978758 0.8984775 0.4037323 -1.2179999 1.00000 0.00000             
O2    core 0.2318652 0.5668277 0.4032491 -1.2179999 1.00000 0.00000             
O2    core 0.0656044 0.5664202 0.4033541 -1.2179999 1.00000 0.00000             
O2    core 0.8988672 0.5653855 0.4033320 -1.2179999 1.00000 0.00000             
O2    core 0.7310515 0.5652402 0.4035337 -1.2179999 1.00000 0.00000             
O2    core 0.5655905 0.5646537 0.4038920 -1.2179999 1.00000 0.00000             
O2    core 0.3983726 0.7323433 0.3955103 -1.2179999 1.00000 0.00000             
O2    core 0.2321104 0.3997453 0.3957500 -1.2179999 1.00000 0.00000             
O2    core 0.0655821 0.3995448 0.3958009 -1.2179999 1.00000 0.00000             
O2    core 0.8989387 0.3996222 0.3957497 -1.2179999 1.00000 0.00000             
O2    core 0.7317859 0.3993351 0.3955970 -1.2179999 1.00000 0.00000             
O2    core 0.5654268 0.3993992 0.3956055 -1.2179999 1.00000 0.00000             
O2    core 0.3990929 0.3993743 0.3956247 -1.2179999 1.00000 0.00000             
O2    core 0.2322015 0.0661638 0.3958647 -1.2179999 1.00000 0.00000             
O2    core 0.0655336 0.0662355 0.3958699 -1.2179999 1.00000 0.00000             
O2    core 0.8985942 0.0662366 0.3958568 -1.2179999 1.00000 0.00000             
O2    core 0.7319211 0.0660837 0.3958458 -1.2179999 1.00000 0.00000             
O2    core 0.5655318 0.0661155 0.3958448 -1.2179999 1.00000 0.00000             
O2    core 0.3990367 0.0661001 0.3958467 -1.2179999 1.00000 0.00000             
O2    core 0.2319921 0.7325809 0.3955184 -1.2179999 1.00000 0.00000             
O2    core 0.0661818 0.7323813 0.3954384 -1.2179999 1.00000 0.00000             
O2    core 0.8988498 0.7325845 0.3957102 -1.2179999 1.00000 0.00000             
O2    core 0.7319438 0.7324473 0.3958470 -1.2179999 1.00000 0.00000             
O2    core 0.5654151 0.7323841 0.3958018 -1.2179999 1.00000 0.00000             
O2    core 0.3155837 0.5013558 0.3813595 -1.2179999 1.00000 0.00000             
O2    core 0.3156597 0.6306879 0.3812937 -1.2179999 1.00000 0.00000             
O2    core 0.1488122 0.1679818 0.3813416 -1.2179999 1.00000 0.00000             
O2    core 0.1488735 0.2976502 0.3813056 -1.2179999 1.00000 0.00000             
O2    core 0.9821632 0.1679639 0.3813422 -1.2179999 1.00000 0.00000             
O2    core 0.9821620 0.2976142 0.3813105 -1.2179999 1.00000 0.00000             
O2    core 0.8153706 0.1679609 0.3813704 -1.2179999 1.00000 0.00000             
O2    core 0.8154517 0.2975351 0.3813043 -1.2179999 1.00000 0.00000             
O2    core 0.6487175 0.1679165 0.3813605 -1.2179999 1.00000 0.00000             
O2    core 0.6487112 0.2975496 0.3812696 -1.2179999 1.00000 0.00000             
O2    core 0.4822037 0.1679121 0.3813697 -1.2179999 1.00000 0.00000             
O2    core 0.4821926 0.2975745 0.3812617 -1.2179999 1.00000 0.00000             
O2    core 0.3156009 0.1679871 0.3813863 -1.2179999 1.00000 0.00000             
O2    core 0.3154967 0.2975872 0.3813125 -1.2179999 1.00000 0.00000             
O2    core 0.1488806 0.8340489 0.3814299 -1.2179999 1.00000 0.00000             
O2    core 0.1489108 0.9642044 0.3816403 -1.2179999 1.00000 0.00000             
O2    core 0.9825264 0.8343832 0.3815296 -1.2179999 1.00000 0.00000             
O2    core 0.9825470 0.9640616 0.3816713 -1.2179999 1.00000 0.00000             
O2    core 0.8155413 0.8344914 0.3814695 -1.2179999 1.00000 0.00000             
O2    core 0.8155132 0.9640808 0.3814682 -1.2179999 1.00000 0.00000             
O2    core 0.6487766 0.8344252 0.3813847 -1.2179999 1.00000 0.00000             
O2    core 0.6487677 0.9641162 0.3813631 -1.2179999 1.00000 0.00000             
O2    core 0.4819663 0.8344022 0.3814290 -1.2179999 1.00000 0.00000             
O2    core 0.4819307 0.9639301 0.3815161 -1.2179999 1.00000 0.00000             
O2    core 0.3151180 0.8342108 0.3815233 -1.2179999 1.00000 0.00000             