O2 Zr1
   1.00000000000000
       17.724000    0.000000    0.000000
        0.000000   19.461000    0.000000
        0.000000    0.000000  114.868482
Ti H O 
180   2 360 
Cart
            5.671680000        14.271397405        38.971211393
            2.617342073         7.775453778        39.232259646
           17.411479798         7.796549502        39.113840078
           14.417559442         7.765760254        39.025731251
           11.503017792         7.784010780        39.229822429
            8.543926868         7.781403006        39.219369857
            5.583974558         7.771902146        39.217516199
            2.630312496         1.283199957        39.156465630
           17.410102643         1.277850128        39.209955678
           14.452532438         1.282723162        39.209251974
           11.497904418         1.286076293        39.211431739
            8.540263318         1.291731659        39.211749264
            5.586386795         1.283270017        39.202978715
            2.549629303        14.276595438        38.910804455
           17.393963168        14.257255096        39.242060005
           14.451238586        14.245370264        39.229187380
           11.502032338        14.263443694        39.221695512
            8.559708318        14.259654638        39.223368953
            1.146758752         4.541142614        38.968353670
           15.922112581         4.485822775        39.001693769
           12.974811662         4.537445024        38.960123772
           15.948133186        17.485443830        38.974970199
           10.016080536        17.504093307        38.964243012
            7.054210489        17.508392242        38.953026665
           15.925526224        11.005452385        39.131775935
           10.022198861        11.018378381        38.953009501
            7.065321665        11.029000195        38.959703266
            4.107446608         4.515278945        38.964131449
           10.021826657         4.539033041        38.967941746
            7.064940599         4.535154464        38.968319343
            4.104431755        17.532714599        39.082851379
            1.180990885        17.510704208        39.178323347
           12.982060778        17.500356795        38.973597119
            4.108290270        10.975902803        38.915524417
            1.153612622        11.050029752        38.941896135
           12.972837209        11.025890327        38.932301738
            5.591563975        11.016317461        35.818619713
            2.633362796         4.530080981        35.845051503
           17.400886163         4.526531295        35.857460713
           14.449914604         4.526303601        35.858121508
           11.493180972         4.529925293        35.836538407
            8.541872657         4.533749380        35.846450328
            5.587600889         4.533527524        35.844287727
            2.628483379        17.507105870        36.005178376
           17.408420635        17.501166372        35.911748864
           14.450775990        17.499654253        35.852002720
           11.498733901        17.503507531        35.849531176
            8.547406090        17.508084758        35.832410585
            5.587698371        17.509692236        35.882768294
            2.633415968        11.019849633        35.810793157
           17.394372593        11.012582896        35.898318425
           14.455426768        11.011018231        35.905724475
           11.491763052        11.020777923        35.819040218
            8.542810256        11.016599646        35.831312121
            7.095574760        14.260026343        35.863116087
            4.112423507         7.774447645        35.935657619
            1.167024373         7.764341547        35.916297191
           15.930136236         7.768027461        35.904977863
           12.954492869         7.766748873        35.892534325
           10.013491060         7.775301982        35.935940817
            7.063721188         7.771409782        35.934722208
            4.113077522         1.290219540        35.928732147
            1.154601622         1.284130193        35.932894296
           15.926809441         1.282053704        35.938240726
           12.972683010         1.282555798        35.936121034
           10.019286808         1.288508918        35.934499083
            7.066413463         1.293642730        35.933640908
            4.115036024        14.266115690        35.874521232
            1.122528271        14.256887284        35.862609763
           15.917312922        14.255340134        35.950126450
           12.972993180        14.255098818        35.940154456
           10.027751790        14.263219893        35.931246600
            5.587985500        14.261544301        32.694313481
            2.634509539         7.772904387        32.733549242
           17.403732637         7.771834032        32.721895225
           14.449857887         7.772015020        32.713227658
           11.492036002         7.772557982        32.727130093
            8.539992140         7.773464864        32.733343280
            5.587687736         7.773641959        32.734819341
            2.633238728         1.284846358        32.744602536
           17.403535901         1.284180791        32.748764685
           14.449694826         1.284647855        32.744422319
           11.496206459         1.285834976        32.740174353
            8.542397287         1.285914766        32.740663513
            5.587971320         1.285759079        32.744817079
            2.632643202        14.259742212        32.697720436
           17.396627086        14.259096107        32.728717717
           14.448899018        14.259027994        32.745709582
           11.498097610        14.258632935        32.738054661
            8.547524840        14.260911818        32.713407874
            7.066342567        11.017934671        32.720299020
            4.110232820         4.528547455        32.738749782
            1.155500228         4.528475449        32.742139574
           15.926447872         4.528633083        32.744018977
           12.973650740         4.529588618        32.738337858
           10.017491366         4.528998950        32.735995041
            7.064306080         4.530246400        32.738183387
            4.101907858        17.502793312        32.790085811
            1.162845054        17.501771609        32.800117876
           15.933487844        17.502349601        32.764417797
           12.975343382        17.502962623        32.744207775
           10.020438868        17.503281783        32.737316630
            7.059449704        17.503647650        32.746353213
            4.109699328        11.016331084        32.716780502
            1.148001204        11.015867912        32.738621056
           15.924863346        11.013552053        32.764924120
           12.979310014        11.013904297        32.744156285
           10.019843341        11.014953245        32.724632804
            5.587485683        11.016329138        29.612624219
            2.633259997         4.529119608        29.633280492
           17.403356888         4.528825747        29.634378956
           14.449781674         4.528699250        29.632834240
           11.495493954         4.528817962        29.629564594
            8.541266496         4.528888022        29.630233970
            5.587436056         4.529105985        29.631572723
            2.632878931        17.502820557        29.672104329
           17.406720904        17.502915916        29.663702795
           14.452199227        17.503211723        29.644865854
           11.496663738        17.503198101        29.634035686
            8.540458282        17.503011275        29.633898378
            5.584020641        17.502939269        29.651216349
            2.631290861        11.015916565        29.619626927
           17.401210512        11.015772553        29.637966127
           14.450795486        11.015540968        29.641012648
           11.497463090        11.015801745        29.625822951
            8.542367156        11.016416713        29.616726296
            7.066739585        14.260291012        29.520730840
            4.110688327         7.772557982        29.537645469
            1.157297442         7.772371156        29.535517195
           15.926954778         7.772057834        29.531483773
           12.971296993         7.772174600        29.531732644
           10.017544538         7.772596904        29.535233998
            7.064203280         7.772468461        29.537576815
            4.110209779         1.285494409        29.551642304
            1.156599116         1.285293961        29.553616106
           15.927454595         1.284733484        29.551573650
           12.973301578         1.285151895        29.547265611
           10.018556579         1.285206386        29.545386208
            7.063916152         1.284809382        29.547651790
            4.109532722        14.259561225        29.518945836
            1.152930248        14.259413321        29.531166248
           15.924659520        14.260166462        29.543549714
           12.973847477        14.259602093        29.544356398
           10.021755761        14.259738320        29.532410602
            7.065089480        11.016504287        26.494702809
            5.586879522        14.261583223        26.244707850
            4.110188510         4.527881888        26.511634602
            2.633109343         7.772081187        26.258653194
            1.156441373         4.527955840        26.512947610
           17.403436646         7.772061726        26.256061505
           15.926846662         4.528397605        26.512338305
           14.449701916         7.772044211        26.254422391
           12.972943553         4.528121259        26.509935416
           11.495731456         7.772051996        26.256190231
           10.018423649         4.528051199        26.508742552
            8.541541218         7.771985828        26.258061053
            7.064178467         4.528327545        26.509875343
            5.587193237         7.771995559        26.259159517
            4.107887935        17.503272053        26.534908308
            2.633116433         1.284013427        26.275430515
            1.157407331        17.503268160        26.541233058
           17.404197006         1.284034834        26.275267462
           15.929432593        17.503180586        26.530591688
           14.450708639         1.284239174        26.271414256
           12.974715953        17.503390765        26.517933606
           11.496087708         1.284445461        26.268024465
           10.018597344        17.503377142        26.512441286
            8.541005953         1.284233336        26.268642351
            7.061993098        17.503229238        26.518808945
            5.586546311         1.284021211        26.272512720
            4.109103802        11.016724196        26.496007235
            2.631852712        14.261462565        26.250174425
            1.153945834        11.016741711        26.507232164
           17.402575260        14.261365260        26.261854186
           15.925985275        11.016303839        26.516569108
           14.450316938        14.261143404        26.267106218
           12.974510354        11.016430335        26.511368568
           11.497285850        14.260987716        26.261201973
           10.020341386        11.016554886        26.500667125
            8.542563893        14.261357475        26.250148680
            4.020834737        14.506957241        41.123085205
           15.822773106         3.846647637        41.636050730
            6.994549733        14.203141840        40.151159109
            4.101271566         7.843886439        40.223005520
            1.096970263         7.787395048        40.213127926
           15.813262408         4.486161397        40.912317425
           13.049277276         7.805561891        40.189287824
           10.026707846         7.793394874        40.230814913
            7.062333398         7.795862529        40.221366406
            4.099375098         1.321386331        40.186730463
            1.172426648         1.330414289        40.195183486
           15.926657015         1.371338826        40.211935062
           12.973484135         1.284616718        40.216869569
           10.019228318         1.292996624        40.214990165
            7.064387610         1.310223502        40.214784204
            4.102574280        14.269266426        40.188360995
            1.263839951        14.192093830        40.125757129
           15.925813352        14.228445032        40.245935956
           12.969618530        14.268898613        40.231801814
           10.018506952        14.254806903        40.234891244
            2.628823680         3.372885161        39.101121924
           17.420676781         3.365203904        39.097002684
           14.411712294         3.351439139        39.089613797
           11.494012228         3.361445985        39.128231673
            8.548776155         3.364569476        39.131046486
            5.598782960         3.366671264        39.130119657
            2.681134294        16.177028256        38.903432731
           17.382400031        16.270904228        39.142365815
           14.448266272        16.313327261        39.148055515
           11.487886813        16.320025738        39.138649917
            8.529072384        16.305188671        39.153067257
            5.629785781        16.223390196        39.053415976
           17.486815660         9.777276460        38.967632803
            8.539616392         9.847318545        39.127922730
            5.598307957         9.861632110        39.124043779
            2.619639103         9.860172535        39.138564100
           14.361322962         9.754273558        38.934181142
           11.493505321         9.832419203        39.137208183
            5.544253302        12.243300428        39.118620113
            2.634245452         5.728960318        39.168308445
           17.372284944         5.763978441        39.145541062
           14.462018323         5.757898825        39.108871244
           11.504630676         5.725576050        39.168686042
            8.542549714         5.724994166        39.143344134
            5.577824330         5.725706438        39.145824260
           17.356971408        18.709141780        39.131724445
            8.545424546        18.677829031        39.135002673
            5.644092594        18.706018289        39.080620124
            2.703230804        12.247439783        39.089304854
           17.436050579        12.206271983        39.149454340
           14.412010057        12.197623515        39.129347300
           11.483822700        12.199612429        39.131818844
            8.535137537        12.204703427        39.138546936
            2.644911755        18.764335122        38.926869490
           14.455382458        18.681114048        39.148261477
           11.495259997        18.679831568        39.134891110
            7.131843382        14.231510140        37.774966933
            4.107705378         7.798522848        37.852760497
            1.186607621         7.732548112        37.828568544
           15.934948302         7.723442310        37.869615054
           12.920122488         7.717882302        37.802608750
           10.015763276         7.777650925        37.852691843
            7.060011554         7.778637598        37.848323732
            4.143179964         1.351780521        37.816699984
            1.133869859         1.338848686        37.818390588
           15.910650470         1.290359659        37.838051378
           12.962766432         1.275999387        37.841355351
           10.019687370         1.286955930        37.842127709
            7.085098104         1.303774126        37.836515244
            4.140111940        14.195443068        37.900535099
            1.079983582        14.184124551        37.754104699
           15.909035814        14.260946848        37.858596087
           12.959349245        14.255166931        37.850597896
           10.018758632        14.259576794        37.850795276
            7.056275335        11.039487728        37.091636508
            4.113318569         4.549026265        37.094871827
            1.158492040         4.565583684        37.097051592
           15.923328448         4.536030209        37.111074171
           12.960058205         4.552684933        37.093541656
           10.022184682         4.547002321        37.098553398
            7.066358519         4.545032868        37.098167220
            4.172750686        17.493068650        37.144234053
            1.109545441        17.483805214        37.181384449
           15.897775757        17.491075844        37.107521327
           12.967007785        17.501448557        37.102337950
           10.015593126        17.495388401        37.095669930
            7.099048664        17.486656251        37.088710131
            4.118362819        11.010578413        37.065427843
            1.202734688        11.054200244        37.080737685
           15.931314882        11.029928485        37.158617067
           12.927261715        11.034529065        37.075382673
           10.010407084        11.018648889        37.085929644
            5.589701183        12.996489780        35.901227638
            5.590629920         9.054755697        35.895065942
            2.644768190         6.502920395        35.882081754
            2.632990592         2.571582378        35.882965674
           17.399902481         6.504825627        35.895417793
           17.395767472         2.569447507        35.882021682
           14.449668240         6.506347478        35.907011738
           14.443858313         2.564763244        35.898189699
           11.480570346         6.497693171        35.865398832
           11.496100115         2.565553360        35.897219961
            8.540016954         6.504453922        35.900618334
            8.547026796         2.569935978        35.896001353
            5.587916376         6.506641339        35.901991414
            5.597310096         2.573855423        35.879404248
            2.638816471         0.019264444        35.917369910
            2.638889140        15.496397296        35.955781823
           17.400547634         0.013416413        35.898730349
           17.388248951        15.525660801        35.871174350
           14.443519784         0.010911783        35.894396565
           14.439533657        15.528274414        35.896765128
           11.491249056         0.010676305        35.896233060
           11.495906923        15.533635919        35.898867657
            8.544123605         0.013630484        35.888621047
            8.555202877        15.532906132        35.861820242
            5.598580907         0.017701726        35.890955284
            5.595445531        15.503555051        35.922210017
            2.650792578        13.000113419        35.895374885
            2.636687819         9.052284150        35.885325655
           17.385535406        12.973074305        35.854585827
           17.406024350         9.034193204        35.920253378
           14.443406351        12.980021882        35.908032966
           14.449154244         9.025427970        35.929238470
           11.487566009        12.986918861        35.883171636
           11.486725891         9.047769198        35.879000906
            8.553473015        12.979595686        35.860121056
            8.533797602         9.053274715        35.901227638
            7.065183418        11.025016529        34.627764592
            4.112419962         4.536230657        34.638697742
            1.152425114         4.539531243        34.643160252
           15.922568088         4.543001139        34.648352210
           12.977085652         4.537116133        34.640946160
           10.014274460         4.528436527        34.637667932
            7.066762626         4.541171805        34.640328274
            4.091340809        17.475789228        34.698615520
            1.180028472        17.486411042        34.710938913
           15.937112402        17.506228178        34.660984547
           12.972773402        17.503009329        34.644318788
           10.024917722        17.505731923        34.637256008
            7.053150594        17.488493369        34.646670187
            4.114947404        11.032267697        34.620118253
            1.141656012        11.014583486        34.641572628
           15.920418167        10.984683606        34.676105590
           12.990552347        11.000602704        34.643906864
           10.014581086        11.009963445        34.625438938
            7.058116859        14.253962295        33.945901646
            4.112887876         7.781052708        33.978383570
            1.153135847         7.774397046        33.972367763
           15.923789272         7.774593602        33.967699291
           12.976747123         7.772809028        33.962267043
           10.014254964         7.778962597        33.975285558
            7.064095164         7.777337603        33.979765232
            4.112379197         1.289715500        33.980606243
            1.157834479         1.288220895        33.982768844
           15.922504282         1.289293196        33.983472547
           12.969391663         1.287757723        33.982142376
           10.019719273         1.289520890        33.980486098
            7.069525798         1.291138099        33.979765232
            4.114702813        14.258070512        33.951110768
            1.169449016        14.253946727        33.950870479
           15.924111848        14.254044032        33.979293235
           12.968808544        14.255641780        33.982477065
           10.014779594        14.259806434        33.968857827
            5.588462275         9.758876084        32.733351861
            5.588315166        12.279011363        32.719835605
            2.633449644         3.271178083        32.740740748
            2.633935282         5.793601975        32.737471102
           17.401772363         3.270495002        32.743074984
           17.402768452         5.793162157        32.735205519
           14.449069169         3.269841112        32.740981037
           14.449553034         5.792973385        32.732364960
           11.495667649         3.270582576        32.740491878
           11.494120344         5.791807671        32.736630090
            8.540782631         3.269815813        32.735540208
            8.541372840         5.793397635        32.735780497
            5.589463681         3.270880330        32.738320695
            5.587391746         5.794086554        32.737531174
            2.634989860        16.232052287        32.743572726
            2.634459912        18.765489159        32.759019876
           17.410164677        16.238233101        32.756488260
           17.410940988        18.762795757        32.764177507
           14.451128698        16.241594015        32.750455289
           14.451298848        18.763570305        32.748369924
           11.495929964        16.240504199        32.737968843
           11.496355340        18.764736019        32.737814371
            8.539924789        16.240988778        32.735874896
            8.539742232        18.761774054        32.747940837
            5.583152165        16.237585049        32.745632346
            5.582482198        18.761203847        32.763774165
            2.632506727         9.758237763        32.741427288
            2.632322398        12.275479191        32.732227652
           17.401407248         9.750756955        32.735634607
           17.398475699        12.275734130        32.737582664
           14.451651556         9.748590946        32.729781854
           14.452266578        12.275226198        32.743495490
           11.496562711         9.754337779        32.735823406
           11.497358519        12.273021267        32.743486908
            8.539015548         9.756550495        32.729155386
            8.541860250        12.278238761        32.720873997
            7.069460219        14.260983824        31.472100646
            4.111163330         7.778550023        31.493434876
            1.160326474         7.774957523        31.489452944
           15.928480814         7.768835092        31.483248339
           12.967675980         7.771055592        31.483677426
           10.015765049         7.774782374        31.490045085
            7.063168199         7.775665903        31.493117352
            4.112021172         1.287845298        31.502351315
            1.155822805         1.289692147        31.503750140
           15.927748813         1.284332587        31.503458360
           12.973271447         1.286535572        31.500042824
           10.018124113         1.284776298        31.498721234
            7.063774360         1.280596075        31.500386094
            4.110542990        14.251200779        31.470135425
            1.149213526        14.251311707        31.479601095
           15.921664164        14.262447291        31.495168390
           12.973732271        14.257944016        31.498317892
           10.025245616        14.257652101        31.486071735
            7.063130978        11.016907130        30.821174908
            4.111230682         4.531733220        30.837291435
            1.156698371         4.531538610        30.839102184
           15.925912607         4.530616159        30.839248074
           12.971201284         4.530976187        30.836347442
           10.018568986         4.530913912        30.834974362
            7.064848434         4.532046542        30.836098572
            4.115447221        17.500831643        30.868323043
            1.155968142        17.500991223        30.874536230
           15.924783588        17.501631490        30.857827562
           12.971181787        17.501553646        30.842749428
           10.017597710        17.501952597        30.837591796
            7.066292940        17.501962327        30.845572824
            4.111415011        11.016222103        30.821792794
            1.160487762        11.015453393        30.835300469
           15.927142652        11.014684684        30.847881314
           12.969102762        11.015747254        30.839153675
           10.017241458        11.015651895        30.826624319
            5.588659012        12.984595217        29.563279157
            5.587611523         9.048895990        29.571912397
            2.634693869         6.498473557        29.578031185
            2.634013267         2.561883016        29.586235338
           17.404586934         6.497987032        29.575971565
           17.403298399         2.561844094        29.585763342
           14.448681013         6.497831344        29.575053318
           14.449732046         2.561312809        29.585162619
           11.493654203         6.497508291        29.573937690
           11.495261770         2.561073438        29.583532087
            8.540862389         6.498164127        29.576881230
            8.541075077         2.560791254        29.584261536
            5.587547717         6.498695412        29.578752052
            5.588387834         2.561427629        29.584939494
            2.634309258         0.010160588        29.598833347
            2.633118205        15.531880537        29.586046540
           17.404576300         0.010086636        29.596035696
           17.402431696        15.533943403        29.585729015
           14.449771039         0.010444719        29.589230369
           14.448663289        15.534920345        29.582639585
           11.495228094         0.010481695        29.584244372
           11.496495360        15.534535017        29.577275991
            8.541170786         0.009689632        29.584210045
            8.543435914        15.533912265        29.573070934
            5.587218050         0.009436639        29.590543376
            5.587616840        15.532571402        29.577198755
            2.632857662        12.983711688        29.567827484
            2.634477636         9.048586560        29.573233987
           17.400873756        12.982919625        29.576632360
           17.404321074         9.047202883        29.577593516
           14.449111706        12.983079205        29.581815737
           14.449017769         9.046297946        29.578752052
           11.496605249        12.983341929        29.575499569
           11.494063627         9.047664109        29.573439949
            8.543170054        12.984422014        29.567381233
            8.540529178         9.048567099        29.572281413
            7.065706276        11.017693354        28.365876161
            4.110727320         4.530079035        28.382018433
            1.156730274         4.530337867        28.383322859
           15.926582574         4.530592806        28.382893771
           12.972677693         4.529065117        28.380602444
           10.017741275         4.528325599        28.379375254
            7.064275949         4.529639217        28.380405064
            4.105670663        17.499693175        28.406004424
            1.159580293        17.501477748        28.411728451
           15.932009663        17.503869505        28.400769557
           12.975538346        17.504719951        28.388145802
           10.018145382        17.503003491        28.383134060
            7.059648212        17.500407393        28.389922225
            4.108834397        11.017878234        28.367352222