# 
# Keywords:
# 
sing  qok noenergy fix molmec phon pot prop comp conv  
# 
# Options:
# 
cell
  17.724000  19.461000  114.868  90.000000  90.000000  90.000000
fractional  1   
Ti    core 0.3200000 0.7333332 0.4541173 2.43599999 1.00000 0.00000             
Ti    core 0.1476722 0.3995403 0.4571592 2.43599999 1.00000 0.00000             
Ti    core 0.9823674 0.4006243 0.4557793 2.43599999 1.00000 0.00000             
Ti    core 0.8134484 0.3990422 0.4547526 2.43599999 1.00000 0.00000             
Ti    core 0.6490080 0.3999800 0.4571308 2.43599999 1.00000 0.00000             
Ti    core 0.4820541 0.3998460 0.4570090 2.43599999 1.00000 0.00000             
Ti    core 0.3150516 0.3993578 0.4569874 2.43599999 1.00000 0.00000             
Ti    core 0.1484040 0.0659370 0.4562760 2.43599999 1.00000 0.00000             
Ti    core 0.9822897 0.0656621 0.4568993 2.43599999 1.00000 0.00000             
Ti    core 0.8154216 0.0659125 0.4568911 2.43599999 1.00000 0.00000             
Ti    core 0.6487195 0.0660848 0.4569165 2.43599999 1.00000 0.00000             
Ti    core 0.4818474 0.0663754 0.4569202 2.43599999 1.00000 0.00000             
Ti    core 0.3151877 0.0659406 0.4568180 2.43599999 1.00000 0.00000             
Ti    core 0.1438518 0.7336003 0.4534134 2.43599999 1.00000 0.00000             
Ti    core 0.9813791 0.7326065 0.4572734 2.43599999 1.00000 0.00000             
Ti    core 0.8153486 0.7319958 0.4571234 2.43599999 1.00000 0.00000             
Ti    core 0.6489524 0.7329245 0.4570361 2.43599999 1.00000 0.00000             
Ti    core 0.4829445 0.7327298 0.4570556 2.43599999 1.00000 0.00000             
Ti    core 0.0647009 0.2333458 0.4540840 2.43599999 1.00000 0.00000             
Ti    core 0.8983363 0.2305032 0.4544725 2.43599999 1.00000 0.00000             
Ti    core 0.7320476 0.2331558 0.4539881 2.43599999 1.00000 0.00000             
Ti    core 0.8998044 0.8984864 0.4541611 2.43599999 1.00000 0.00000             
Ti    core 0.5651140 0.8994447 0.4540361 2.43599999 1.00000 0.00000             
Ti    core 0.3980033 0.8996656 0.4539054 2.43599999 1.00000 0.00000             
Ti    core 0.8985289 0.5655132 0.4559883 2.43599999 1.00000 0.00000             
Ti    core 0.5654592 0.5661774 0.4539052 2.43599999 1.00000 0.00000             
Ti    core 0.3986302 0.5667232 0.4539832 2.43599999 1.00000 0.00000             
Ti    core 0.2317449 0.2320168 0.4540348 2.43599999 1.00000 0.00000             
Ti    core 0.5654382 0.2332374 0.4540792 2.43599999 1.00000 0.00000             
Ti    core 0.3986087 0.2330381 0.4540836 2.43599999 1.00000 0.00000             
Ti    core 0.2315748 0.9009154 0.4554182 2.43599999 1.00000 0.00000             
Ti    core 0.0666323 0.8997844 0.4565307 2.43599999 1.00000 0.00000             
Ti    core 0.7324566 0.8992527 0.4541451 2.43599999 1.00000 0.00000             
Ti    core 0.2317925 0.5639948 0.4534684 2.43599999 1.00000 0.00000             
Ti    core 0.0650876 0.5678038 0.4537757 2.43599999 1.00000 0.00000             
Ti    core 0.7319362 0.5665634 0.4536639 2.43599999 1.00000 0.00000             
Ti    core 0.3154798 0.5660715 0.4173813 2.43599999 1.00000 0.00000             
Ti    core 0.1485761 0.2327774 0.4176893 2.43599999 1.00000 0.00000             
Ti    core 0.9817697 0.2325950 0.4178339 2.43599999 1.00000 0.00000             
Ti    core 0.8152739 0.2325833 0.4178416 2.43599999 1.00000 0.00000             
Ti    core 0.6484530 0.2327694 0.4175901 2.43599999 1.00000 0.00000             
Ti    core 0.4819382 0.2329659 0.4177056 2.43599999 1.00000 0.00000             
Ti    core 0.3152562 0.2329545 0.4176804 2.43599999 1.00000 0.00000             
Ti    core 0.1483008 0.8995995 0.4195552 2.43599999 1.00000 0.00000             
Ti    core 0.9821948 0.8992943 0.4184665 2.43599999 1.00000 0.00000             
Ti    core 0.8153225 0.8992166 0.4177703 2.43599999 1.00000 0.00000             
Ti    core 0.6487663 0.8994146 0.4177415 2.43599999 1.00000 0.00000             
Ti    core 0.4822504 0.8996498 0.4175420 2.43599999 1.00000 0.00000             
Ti    core 0.3152617 0.8997324 0.4181288 2.43599999 1.00000 0.00000             
Ti    core 0.1485791 0.5662530 0.4172901 2.43599999 1.00000 0.00000             
Ti    core 0.9814022 0.5658796 0.4183100 2.43599999 1.00000 0.00000             
Ti    core 0.8155849 0.5657992 0.4183963 2.43599999 1.00000 0.00000             
Ti    core 0.6483730 0.5663007 0.4173862 2.43599999 1.00000 0.00000             
Ti    core 0.4819911 0.5660860 0.4175292 2.43599999 1.00000 0.00000             
Ti    core 0.4003371 0.7327489 0.4178998 2.43599999 1.00000 0.00000             
Ti    core 0.2320257 0.3994886 0.4187451 2.43599999 1.00000 0.00000             
Ti    core 0.0658443 0.3989693 0.4185195 2.43599999 1.00000 0.00000             
Ti    core 0.8987890 0.3991587 0.4183876 2.43599999 1.00000 0.00000             
Ti    core 0.7309012 0.3990930 0.4182426 2.43599999 1.00000 0.00000             
Ti    core 0.5649679 0.3995325 0.4187484 2.43599999 1.00000 0.00000             
Ti    core 0.3985399 0.3993325 0.4187342 2.43599999 1.00000 0.00000             
Ti    core 0.2320626 0.0662977 0.4186644 2.43599999 1.00000 0.00000             
Ti    core 0.0651434 0.0659848 0.4187129 2.43599999 1.00000 0.00000             
Ti    core 0.8986013 0.0658781 0.4187752 2.43599999 1.00000 0.00000             
Ti    core 0.7319275 0.0659039 0.4187505 2.43599999 1.00000 0.00000             
Ti    core 0.5652949 0.0662098 0.4187316 2.43599999 1.00000 0.00000             
Ti    core 0.3986918 0.0664736 0.4187216 2.43599999 1.00000 0.00000             
Ti    core 0.2321731 0.7330618 0.4180327 2.43599999 1.00000 0.00000             
Ti    core 0.0633338 0.7325876 0.4178939 2.43599999 1.00000 0.00000             
Ti    core 0.8980655 0.7325081 0.4189137 2.43599999 1.00000 0.00000             
Ti    core 0.7319450 0.7324957 0.4187975 2.43599999 1.00000 0.00000             
Ti    core 0.5657725 0.7329130 0.4186937 2.43599999 1.00000 0.00000             
Ti    core 0.3152779 0.7328269 0.3809749 2.43599999 1.00000 0.00000             
Ti    core 0.1486408 0.3994093 0.3814321 2.43599999 1.00000 0.00000             
Ti    core 0.9819303 0.3993543 0.3812963 2.43599999 1.00000 0.00000             
Ti    core 0.8152707 0.3993636 0.3811953 2.43599999 1.00000 0.00000             
Ti    core 0.6483884 0.3993915 0.3813573 2.43599999 1.00000 0.00000             
Ti    core 0.4818321 0.3994381 0.3814297 2.43599999 1.00000 0.00000             
Ti    core 0.3152611 0.3994472 0.3814469 2.43599999 1.00000 0.00000             
Ti    core 0.1485691 0.0660216 0.3815609 2.43599999 1.00000 0.00000             
Ti    core 0.9819192 0.0659874 0.3816094 2.43599999 1.00000 0.00000             
Ti    core 0.8152615 0.0660114 0.3815588 2.43599999 1.00000 0.00000             
Ti    core 0.6486237 0.0660724 0.3815093 2.43599999 1.00000 0.00000             
Ti    core 0.4819678 0.0660765 0.3815150 2.43599999 1.00000 0.00000             
Ti    core 0.3152771 0.0660685 0.3815634 2.43599999 1.00000 0.00000             
Ti    core 0.1485355 0.7327343 0.3810146 2.43599999 1.00000 0.00000             
Ti    core 0.9815294 0.7327011 0.3813758 2.43599999 1.00000 0.00000             
Ti    core 0.8152166 0.7326976 0.3815738 2.43599999 1.00000 0.00000             
Ti    core 0.6487304 0.7326773 0.3814846 2.43599999 1.00000 0.00000             
Ti    core 0.4822571 0.7327944 0.3811974 2.43599999 1.00000 0.00000             
Ti    core 0.3986878 0.5661546 0.3812777 2.43599999 1.00000 0.00000             
Ti    core 0.2319021 0.2326986 0.3814927 2.43599999 1.00000 0.00000             
Ti    core 0.0651941 0.2326949 0.3815322 2.43599999 1.00000 0.00000             
Ti    core 0.8985809 0.2327030 0.3815541 2.43599999 1.00000 0.00000             
Ti    core 0.7319821 0.2327521 0.3814879 2.43599999 1.00000 0.00000             
Ti    core 0.5651936 0.2327218 0.3814606 2.43599999 1.00000 0.00000             
Ti    core 0.3985729 0.2327859 0.3814861 2.43599999 1.00000 0.00000             
Ti    core 0.2314324 0.8993779 0.3820909 2.43599999 1.00000 0.00000             
Ti    core 0.0656085 0.8993254 0.3822078 2.43599999 1.00000 0.00000             
Ti    core 0.8989781 0.8993551 0.3817918 2.43599999 1.00000 0.00000             
Ti    core 0.7320776 0.8993866 0.3815563 2.43599999 1.00000 0.00000             
Ti    core 0.5653599 0.8994030 0.3814760 2.43599999 1.00000 0.00000             
Ti    core 0.3982989 0.8994218 0.3815813 2.43599999 1.00000 0.00000             
Ti    core 0.2318720 0.5660722 0.3812367 2.43599999 1.00000 0.00000             
Ti    core 0.0647710 0.5660484 0.3814912 2.43599999 1.00000 0.00000             
Ti    core 0.8984915 0.5659294 0.3817977 2.43599999 1.00000 0.00000             
Ti    core 0.7323014 0.5659475 0.3815557 2.43599999 1.00000 0.00000             
Ti    core 0.5653263 0.5660014 0.3813282 2.43599999 1.00000 0.00000             
Ti    core 0.3152497 0.5660721 0.3450651 2.43599999 1.00000 0.00000             
Ti    core 0.1485703 0.2327280 0.3453058 2.43599999 1.00000 0.00000             
Ti    core 0.9819091 0.2327129 0.3453186 2.43599999 1.00000 0.00000             
Ti    core 0.8152664 0.2327064 0.3453006 2.43599999 1.00000 0.00000             
Ti    core 0.6485835 0.2327125 0.3452625 2.43599999 1.00000 0.00000             
Ti    core 0.4819040 0.2327161 0.3452703 2.43599999 1.00000 0.00000             
Ti    core 0.3152469 0.2327273 0.3452859 2.43599999 1.00000 0.00000             
Ti    core 0.1485488 0.8993793 0.3457582 2.43599999 1.00000 0.00000             
Ti    core 0.9820989 0.8993842 0.3456603 2.43599999 1.00000 0.00000             
Ti    core 0.8154028 0.8993994 0.3454408 2.43599999 1.00000 0.00000             
Ti    core 0.6486495 0.8993987 0.3453146 2.43599999 1.00000 0.00000             
Ti    core 0.4818584 0.8993891 0.3453130 2.43599999 1.00000 0.00000             
Ti    core 0.3150542 0.8993854 0.3455148 2.43599999 1.00000 0.00000             
Ti    core 0.1484592 0.5660509 0.3451467 2.43599999 1.00000 0.00000             
Ti    core 0.9817880 0.5660435 0.3453604 2.43599999 1.00000 0.00000             
Ti    core 0.8153236 0.5660316 0.3453959 2.43599999 1.00000 0.00000             
Ti    core 0.6486946 0.5660450 0.3452189 2.43599999 1.00000 0.00000             
Ti    core 0.4819661 0.5660766 0.3451129 2.43599999 1.00000 0.00000             
Ti    core 0.3987102 0.7327625 0.3439943 2.43599999 1.00000 0.00000             
Ti    core 0.2319278 0.3993915 0.3441914 2.43599999 1.00000 0.00000             
Ti    core 0.0652955 0.3993819 0.3441666 2.43599999 1.00000 0.00000             
Ti    core 0.8986095 0.3993658 0.3441196 2.43599999 1.00000 0.00000             
Ti    core 0.7318493 0.3993718 0.3441225 2.43599999 1.00000 0.00000             
Ti    core 0.5651966 0.3993935 0.3441633 2.43599999 1.00000 0.00000             
Ti    core 0.3985671 0.3993869 0.3441906 2.43599999 1.00000 0.00000             
Ti    core 0.2319008 0.0660549 0.3443545 2.43599999 1.00000 0.00000             
Ti    core 0.0652561 0.0660446 0.3443775 2.43599999 1.00000 0.00000             
Ti    core 0.8986377 0.0660158 0.3443537 2.43599999 1.00000 0.00000             
Ti    core 0.7319624 0.0660373 0.3443035 2.43599999 1.00000 0.00000             
Ti    core 0.5652537 0.0660401 0.3442816 2.43599999 1.00000 0.00000             
Ti    core 0.3985509 0.0660197 0.3443080 2.43599999 1.00000 0.00000             
Ti    core 0.2318626 0.7327250 0.3439735 2.43599999 1.00000 0.00000             
Ti    core 0.0650491 0.7327174 0.3441159 2.43599999 1.00000 0.00000             
Ti    core 0.8984800 0.7327561 0.3442602 2.43599999 1.00000 0.00000             
Ti    core 0.7319932 0.7327271 0.3442696 2.43599999 1.00000 0.00000             
Ti    core 0.5654342 0.7327341 0.3441304 2.43599999 1.00000 0.00000             
Ti    core 0.3986171 0.5660811 0.3087331 2.43599999 1.00000 0.00000             
Ti    core 0.3152155 0.7328289 0.3058200 2.43599999 1.00000 0.00000             
Ti    core 0.2318996 0.2326644 0.3089304 2.43599999 1.00000 0.00000             
Ti    core 0.1485618 0.3993670 0.3059825 2.43599999 1.00000 0.00000             
Ti    core 0.0652472 0.2326682 0.3089457 2.43599999 1.00000 0.00000             
Ti    core 0.9819136 0.3993660 0.3059523 2.43599999 1.00000 0.00000             
Ti    core 0.8986034 0.2326909 0.3089386 2.43599999 1.00000 0.00000             
Ti    core 0.8152619 0.3993651 0.3059332 2.43599999 1.00000 0.00000             
Ti    core 0.7319422 0.2326767 0.3089106 2.43599999 1.00000 0.00000             
Ti    core 0.6485969 0.3993655 0.3059538 2.43599999 1.00000 0.00000             
Ti    core 0.5652462 0.2326731 0.3088967 2.43599999 1.00000 0.00000             
Ti    core 0.4819195 0.3993621 0.3059756 2.43599999 1.00000 0.00000             
Ti    core 0.3985657 0.2326873 0.3089099 2.43599999 1.00000 0.00000             
Ti    core 0.3152332 0.3993626 0.3059884 2.43599999 1.00000 0.00000             
Ti    core 0.2317698 0.8994025 0.3092016 2.43599999 1.00000 0.00000             
Ti    core 0.1485622 0.0659788 0.3061780 2.43599999 1.00000 0.00000             
Ti    core 0.0653017 0.8994023 0.3092753 2.43599999 1.00000 0.00000             
Ti    core 0.9819565 0.0659799 0.3061761 2.43599999 1.00000 0.00000             
Ti    core 0.8987493 0.8993978 0.3091513 2.43599999 1.00000 0.00000             
Ti    core 0.8153187 0.0659904 0.3061312 2.43599999 1.00000 0.00000             
Ti    core 0.7320422 0.8994086 0.3090038 2.43599999 1.00000 0.00000             
Ti    core 0.6486170 0.0660010 0.3060917 2.43599999 1.00000 0.00000             
Ti    core 0.5652560 0.8994079 0.3089398 2.43599999 1.00000 0.00000             
Ti    core 0.4818893 0.0659901 0.3060989 2.43599999 1.00000 0.00000             
Ti    core 0.3984424 0.8994003 0.3090140 2.43599999 1.00000 0.00000             
Ti    core 0.3151967 0.0659792 0.3061440 2.43599999 1.00000 0.00000             
Ti    core 0.2318384 0.5660924 0.3087483 2.43599999 1.00000 0.00000             
Ti    core 0.1484909 0.7328227 0.3058837 2.43599999 1.00000 0.00000             
Ti    core 0.0651064 0.5660933 0.3088791 2.43599999 1.00000 0.00000             
Ti    core 0.9818650 0.7328177 0.3060198 2.43599999 1.00000 0.00000             
Ti    core 0.8985548 0.5660708 0.3089879 2.43599999 1.00000 0.00000             
Ti    core 0.8152966 0.7328063 0.3060810 2.43599999 1.00000 0.00000             
Ti    core 0.7320306 0.5660773 0.3089273 2.43599999 1.00000 0.00000             
Ti    core 0.6486846 0.7327983 0.3060122 2.43599999 1.00000 0.00000             
Ti    core 0.5653544 0.5660837 0.3088026 2.43599999 1.00000 0.00000             
Ti    core 0.4819772 0.7328173 0.3058834 2.43599999 1.00000 0.00000             
O2    core 0.3946372 0.7298259 0.4678668 -1.2179999 1.00000 0.00000             
O2    core 0.2313965 0.4030567 0.4687040 -1.2179999 1.00000 0.00000             
O2    core 0.0618918 0.4001539 0.4685889 -1.2179999 1.00000 0.00000             
O3    core 0.8921949 0.2305206 0.4767363 -0.3380000 1.00000 0.00000             
H22   core 0.8927315 0.1976593 0.4851697 0.12000000 1.00000 0.00000             
O2    core 0.7362490 0.4010874 0.4683111 -1.2179999 1.00000 0.00000             
O2    core 0.5657136 0.4004622 0.4687950 -1.2179999 1.00000 0.00000             
O2    core 0.3984616 0.4005890 0.4686849 -1.2179999 1.00000 0.00000             
O2    core 0.2312895 0.0678992 0.4682813 -1.2179999 1.00000 0.00000             
O2    core 0.0661491 0.0683631 0.4683798 -1.2179999 1.00000 0.00000             
O2    core 0.8985927 0.0704660 0.4685750 -1.2179999 1.00000 0.00000             
O2    core 0.7319727 0.0660098 0.4686325 -1.2179999 1.00000 0.00000             
O2    core 0.5652916 0.0664404 0.4686106 -1.2179999 1.00000 0.00000             
O2    core 0.3985775 0.0673256 0.4686082 -1.2179999 1.00000 0.00000             
O3    core 0.2314700 0.7332237 0.4683003 -0.3380000 1.00000 0.00000             
H22   core 0.2268582 0.7454374 0.4791923 0.12000000 1.00000 0.00000             
O2    core 0.0713067 0.7292582 0.4675708 -1.2179999 1.00000 0.00000             
O2    core 0.8985451 0.7311261 0.4689712 -1.2179999 1.00000 0.00000             
O2    core 0.7317546 0.7332048 0.4688065 -1.2179999 1.00000 0.00000             
O2    core 0.5652509 0.7324807 0.4688425 -1.2179999 1.00000 0.00000             
O2    core 0.1483200 0.1733151 0.4556311 -1.2179999 1.00000 0.00000             
O2    core 0.9828863 0.1729204 0.4555831 -1.2179999 1.00000 0.00000             
O2    core 0.8131185 0.1722131 0.4554970 -1.2179999 1.00000 0.00000             
O2    core 0.6484999 0.1727273 0.4559470 -1.2179999 1.00000 0.00000             
O2    core 0.4823277 0.1728878 0.4559798 -1.2179999 1.00000 0.00000             
O2    core 0.3158871 0.1729958 0.4559690 -1.2179999 1.00000 0.00000             
O2    core 0.1512714 0.8312537 0.4533275 -1.2179999 1.00000 0.00000             
O2    core 0.9807267 0.8360775 0.4561117 -1.2179999 1.00000 0.00000             
O2    core 0.8151809 0.8382574 0.4561780 -1.2179999 1.00000 0.00000             
O2    core 0.6481543 0.8386016 0.4560684 -1.2179999 1.00000 0.00000             
O2    core 0.4812160 0.8378392 0.4562364 -1.2179999 1.00000 0.00000             
O2    core 0.3176363 0.8336360 0.4550752 -1.2179999 1.00000 0.00000             
O2    core 0.9866179 0.5024036 0.4540756 -1.2179999 1.00000 0.00000             
O2    core 0.4818109 0.5060027 0.4559434 -1.2179999 1.00000 0.00000             
O2    core 0.3158603 0.5067382 0.4558982 -1.2179999 1.00000 0.00000             
O2    core 0.1478018 0.5066632 0.4560674 -1.2179999 1.00000 0.00000             
O2    core 0.8102755 0.5012216 0.4536858 -1.2179999 1.00000 0.00000             
O2    core 0.6484713 0.5052371 0.4560516 -1.2179999 1.00000 0.00000             
O2    core 0.3128105 0.6291198 0.4558350 -1.2179999 1.00000 0.00000             
O2    core 0.1486259 0.2943816 0.4564140 -1.2179999 1.00000 0.00000             
O2    core 0.9801560 0.2961810 0.4561487 -1.2179999 1.00000 0.00000             
O2    core 0.8159568 0.2958686 0.4557214 -1.2179999 1.00000 0.00000             
O2    core 0.6490990 0.2942077 0.4564184 -1.2179999 1.00000 0.00000             
O2    core 0.4819764 0.2941778 0.4561231 -1.2179999 1.00000 0.00000             
O2    core 0.3147046 0.2942144 0.4561520 -1.2179999 1.00000 0.00000             
O2    core 0.9792920 0.9613659 0.4559877 -1.2179999 1.00000 0.00000             
O2    core 0.4821386 0.9597569 0.4560259 -1.2179999 1.00000 0.00000             
O2    core 0.3184435 0.9612054 0.4553922 -1.2179999 1.00000 0.00000             
O2    core 0.1525181 0.6293325 0.4554934 -1.2179999 1.00000 0.00000             
O2    core 0.9837537 0.6272171 0.4561943 -1.2179999 1.00000 0.00000             
O2    core 0.8131353 0.6267727 0.4559600 -1.2179999 1.00000 0.00000             
O2    core 0.6479250 0.6268749 0.4559888 -1.2179999 1.00000 0.00000             
O2    core 0.4815582 0.6271365 0.4560672 -1.2179999 1.00000 0.00000             
O2    core 0.1492277 0.9642020 0.4536006 -1.2179999 1.00000 0.00000             
O2    core 0.8155824 0.9599257 0.4561804 -1.2179999 1.00000 0.00000             
O2    core 0.6485703 0.9598598 0.4560246 -1.2179999 1.00000 0.00000             
O2    core 0.4023834 0.7312836 0.4401779 -1.2179999 1.00000 0.00000             
O2    core 0.2317595 0.4007257 0.4410844 -1.2179999 1.00000 0.00000             
O2    core 0.0669492 0.3973356 0.4408025 -1.2179999 1.00000 0.00000             
O2    core 0.8990605 0.3968677 0.4412808 -1.2179999 1.00000 0.00000             
O2    core 0.7289620 0.3965820 0.4405000 -1.2179999 1.00000 0.00000             
O2    core 0.5650961 0.3996532 0.4410836 -1.2179999 1.00000 0.00000             
O2    core 0.3983306 0.3997039 0.4410327 -1.2179999 1.00000 0.00000             
O2    core 0.2337610 0.0694610 0.4406642 -1.2179999 1.00000 0.00000             
O2    core 0.0639737 0.0687965 0.4406839 -1.2179999 1.00000 0.00000             
O2    core 0.8976896 0.0663049 0.4409130 -1.2179999 1.00000 0.00000             
O2    core 0.7313680 0.0655670 0.4409515 -1.2179999 1.00000 0.00000             
O2    core 0.5653175 0.0661300 0.4409605 -1.2179999 1.00000 0.00000             
O2    core 0.3997460 0.0669942 0.4408951 -1.2179999 1.00000 0.00000             
O2    core 0.2335879 0.7294303 0.4416411 -1.2179999 1.00000 0.00000             
O2    core 0.0609334 0.7288487 0.4399348 -1.2179999 1.00000 0.00000             
O2    core 0.8975985 0.7327962 0.4411524 -1.2179999 1.00000 0.00000             
O2    core 0.7311752 0.7324992 0.4410592 -1.2179999 1.00000 0.00000             
O2    core 0.5652651 0.7327258 0.4410615 -1.2179999 1.00000 0.00000             
O2    core 0.3981198 0.5672621 0.4322153 -1.2179999 1.00000 0.00000             
O2    core 0.2320762 0.2337509 0.4322530 -1.2179999 1.00000 0.00000             
O2    core 0.0653629 0.2346017 0.4322784 -1.2179999 1.00000 0.00000             
O2    core 0.8984049 0.2330831 0.4324418 -1.2179999 1.00000 0.00000             
O2    core 0.7312152 0.2339389 0.4322375 -1.2179999 1.00000 0.00000             
O2    core 0.5654584 0.2336469 0.4322959 -1.2179999 1.00000 0.00000             
O2    core 0.3986887 0.2335457 0.4322914 -1.2179999 1.00000 0.00000             
O2    core 0.2354294 0.8988782 0.4328282 -1.2179999 1.00000 0.00000             
O2    core 0.0626013 0.8984022 0.4332611 -1.2179999 1.00000 0.00000             
O2    core 0.8969632 0.8987758 0.4324004 -1.2179999 1.00000 0.00000             
O2    core 0.7316073 0.8993088 0.4323400 -1.2179999 1.00000 0.00000             
O2    core 0.5650865 0.8989974 0.4322623 -1.2179999 1.00000 0.00000             
O2    core 0.4005331 0.8985487 0.4321812 -1.2179999 1.00000 0.00000             
O2    core 0.2323608 0.5657766 0.4319099 -1.2179999 1.00000 0.00000             
O2    core 0.0678591 0.5680181 0.4320883 -1.2179999 1.00000 0.00000             
O2    core 0.8988555 0.5667709 0.4329958 -1.2179999 1.00000 0.00000             
O2    core 0.7293648 0.5670073 0.4320259 -1.2179999 1.00000 0.00000             
O2    core 0.5647939 0.5661913 0.4321488 -1.2179999 1.00000 0.00000             
O2    core 0.3153747 0.6678223 0.4183439 -1.2179999 1.00000 0.00000             
O2    core 0.3154271 0.4652770 0.4182721 -1.2179999 1.00000 0.00000             
O2    core 0.1492196 0.3341514 0.4181208 -1.2179999 1.00000 0.00000             
O2    core 0.1485551 0.1321403 0.4181311 -1.2179999 1.00000 0.00000             
O2    core 0.9817142 0.3342493 0.4182762 -1.2179999 1.00000 0.00000             
O2    core 0.9814809 0.1320306 0.4181201 -1.2179999 1.00000 0.00000             
O2    core 0.8152600 0.3343275 0.4184113 -1.2179999 1.00000 0.00000             
O2    core 0.8149322 0.1317899 0.4183085 -1.2179999 1.00000 0.00000             
O2    core 0.6477415 0.3338828 0.4179264 -1.2179999 1.00000 0.00000             
O2    core 0.6486177 0.1318305 0.4182972 -1.2179999 1.00000 0.00000             
O2    core 0.4818335 0.3342302 0.4183368 -1.2179999 1.00000 0.00000             
O2    core 0.4822290 0.1320557 0.4182830 -1.2179999 1.00000 0.00000             
O2    core 0.3152740 0.3343426 0.4183528 -1.2179999 1.00000 0.00000             
O2    core 0.3158040 0.1322571 0.4180896 -1.2179999 1.00000 0.00000             
O2    core 0.1488838 0.0009899 0.4185320 -1.2179999 1.00000 0.00000             
O2    core 0.1488879 0.7962796 0.4189796 -1.2179999 1.00000 0.00000             
O2    core 0.9817506 0.0006894 0.4183148 -1.2179999 1.00000 0.00000             
O2    core 0.9810567 0.7977833 0.4179937 -1.2179999 1.00000 0.00000             
O2    core 0.8149131 0.0005607 0.4182643 -1.2179999 1.00000 0.00000             
O2    core 0.8146882 0.7979176 0.4182919 -1.2179999 1.00000 0.00000             
O2    core 0.6483440 0.0005486 0.4182857 -1.2179999 1.00000 0.00000             
O2    core 0.6486068 0.7981931 0.4183164 -1.2179999 1.00000 0.00000             
O2    core 0.4820652 0.0007004 0.4181970 -1.2179999 1.00000 0.00000             
O2    core 0.4826903 0.7981556 0.4178847 -1.2179999 1.00000 0.00000             
O2    core 0.3158757 0.0009096 0.4182242 -1.2179999 1.00000 0.00000             
O2    core 0.3156988 0.7966474 0.4185884 -1.2179999 1.00000 0.00000             
O2    core 0.1495595 0.6680085 0.4182757 -1.2179999 1.00000 0.00000             
O2    core 0.1487637 0.4651500 0.4181586 -1.2179999 1.00000 0.00000             
O2    core 0.9809036 0.6666191 0.4178004 -1.2179999 1.00000 0.00000             
O2    core 0.9820596 0.4642204 0.4185656 -1.2179999 1.00000 0.00000             
O2    core 0.8149067 0.6669761 0.4184232 -1.2179999 1.00000 0.00000             
O2    core 0.8152310 0.4637700 0.4186703 -1.2179999 1.00000 0.00000             
O2    core 0.6481362 0.6673305 0.4181335 -1.2179999 1.00000 0.00000             
O2    core 0.6480888 0.4649180 0.4180849 -1.2179999 1.00000 0.00000             
O2    core 0.4825927 0.6669542 0.4178649 -1.2179999 1.00000 0.00000             
O2    core 0.4814826 0.4652009 0.4183439 -1.2179999 1.00000 0.00000             
O2    core 0.3986224 0.5665185 0.4035047 -1.2179999 1.00000 0.00000             
O2    core 0.2320255 0.2330934 0.4036321 -1.2179999 1.00000 0.00000             
O2    core 0.0650206 0.2332630 0.4036841 -1.2179999 1.00000 0.00000             
O2    core 0.8983620 0.2334413 0.4037446 -1.2179999 1.00000 0.00000             
O2    core 0.7321759 0.2331389 0.4036583 -1.2179999 1.00000 0.00000             
O2    core 0.5650121 0.2326929 0.4036201 -1.2179999 1.00000 0.00000             
O2    core 0.3987115 0.2333473 0.4036511 -1.2179999 1.00000 0.00000             
O2    core 0.2308362 0.8979903 0.4043303 -1.2179999 1.00000 0.00000             
O2    core 0.0665780 0.8985361 0.4044739 -1.2179999 1.00000 0.00000             
O2    core 0.8991826 0.8995544 0.4038918 -1.2179999 1.00000 0.00000             
O2    core 0.7319326 0.8993890 0.4036976 -1.2179999 1.00000 0.00000             
O2    core 0.5656126 0.8995289 0.4036153 -1.2179999 1.00000 0.00000             
O2    core 0.3979435 0.8986431 0.4037250 -1.2179999 1.00000 0.00000             
O2    core 0.2321681 0.5668911 0.4034156 -1.2179999 1.00000 0.00000             
O2    core 0.0644130 0.5659824 0.4036656 -1.2179999 1.00000 0.00000             
O2    core 0.8982407 0.5644460 0.4040680 -1.2179999 1.00000 0.00000             
O2    core 0.7329357 0.5652640 0.4036928 -1.2179999 1.00000 0.00000             
O2    core 0.5650294 0.5657450 0.4034776 -1.2179999 1.00000 0.00000             
O2    core 0.3982237 0.7324373 0.3955592 -1.2179999 1.00000 0.00000             
O2    core 0.2320519 0.3998280 0.3959377 -1.2179999 1.00000 0.00000             
O2    core 0.0650607 0.3994860 0.3958676 -1.2179999 1.00000 0.00000             
O2    core 0.8984309 0.3994961 0.3958132 -1.2179999 1.00000 0.00000             
O2    core 0.7321568 0.3994044 0.3957499 -1.2179999 1.00000 0.00000             
O2    core 0.5650110 0.3997206 0.3959016 -1.2179999 1.00000 0.00000             
O2    core 0.3985610 0.3996371 0.3959538 -1.2179999 1.00000 0.00000             
O2    core 0.2320232 0.0662718 0.3959636 -1.2179999 1.00000 0.00000             
O2    core 0.0653258 0.0661950 0.3959888 -1.2179999 1.00000 0.00000             
O2    core 0.8983584 0.0662501 0.3959970 -1.2179999 1.00000 0.00000             
O2    core 0.7317418 0.0661712 0.3959815 -1.2179999 1.00000 0.00000             
O2    core 0.5653193 0.0662618 0.3959622 -1.2179999 1.00000 0.00000             
O2    core 0.3988674 0.0663449 0.3959538 -1.2179999 1.00000 0.00000             
O2    core 0.2321543 0.7326484 0.3956199 -1.2179999 1.00000 0.00000             
O2    core 0.0659811 0.7324365 0.3956171 -1.2179999 1.00000 0.00000             
O2    core 0.8984491 0.7324415 0.3959483 -1.2179999 1.00000 0.00000             
O2    core 0.7317089 0.7325236 0.3959854 -1.2179999 1.00000 0.00000             
O2    core 0.5650406 0.7327376 0.3958267 -1.2179999 1.00000 0.00000             
O2    core 0.3153048 0.5014581 0.3814298 -1.2179999 1.00000 0.00000             
O2    core 0.3152965 0.6309548 0.3812723 -1.2179999 1.00000 0.00000             
O2    core 0.1485810 0.1680889 0.3815159 -1.2179999 1.00000 0.00000             
O2    core 0.1486084 0.2977032 0.3814778 -1.2179999 1.00000 0.00000             
O2    core 0.9818197 0.1680538 0.3815431 -1.2179999 1.00000 0.00000             
O2    core 0.9818759 0.2976806 0.3814514 -1.2179999 1.00000 0.00000             
O2    core 0.8152262 0.1680202 0.3815187 -1.2179999 1.00000 0.00000             
O2    core 0.8152535 0.2976709 0.3814183 -1.2179999 1.00000 0.00000             
O2    core 0.6485933 0.1680583 0.3815130 -1.2179999 1.00000 0.00000             
O2    core 0.6485060 0.2976110 0.3814680 -1.2179999 1.00000 0.00000             
O2    core 0.4818767 0.1680189 0.3814553 -1.2179999 1.00000 0.00000             
O2    core 0.4819100 0.2976927 0.3814581 -1.2179999 1.00000 0.00000             
O2    core 0.3153613 0.1680736 0.3814877 -1.2179999 1.00000 0.00000             
O2    core 0.3152444 0.2977281 0.3814785 -1.2179999 1.00000 0.00000             
O2    core 0.1486679 0.8340811 0.3815489 -1.2179999 1.00000 0.00000             
O2    core 0.1486380 0.9642613 0.3817289 -1.2179999 1.00000 0.00000             
O2    core 0.9822932 0.8343987 0.3816994 -1.2179999 1.00000 0.00000             
O2    core 0.9823370 0.9641229 0.3817890 -1.2179999 1.00000 0.00000             
O2    core 0.8153424 0.8345714 0.3816291 -1.2179999 1.00000 0.00000             
O2    core 0.8153520 0.9641627 0.3816048 -1.2179999 1.00000 0.00000             
O2    core 0.6486081 0.8345154 0.3814836 -1.2179999 1.00000 0.00000             
O2    core 0.6486321 0.9642226 0.3814818 -1.2179999 1.00000 0.00000             
O2    core 0.4818283 0.8345403 0.3814592 -1.2179999 1.00000 0.00000             
O2    core 0.4818180 0.9640704 0.3815998 -1.2179999 1.00000 0.00000             