&GLOBAL                                                                                           
  PROJECT TiO2_110 
  PRINT_LEVEL MEDIUM
  RUN_TYPE GEO_OPT
  EXTENDED_FFT_LENGTHS
  &TIMINGS
     THRESHOLD 0.01
  &END
&END GLOBAL
&FORCE_EVAL
  METHOD Quickstep
  STRESS_TENSOR ANALYTICAL
  &DFT
    CHARGE 1
    BASIS_SET_FILE_NAME  ./BASIS_RI_cc-TZ
    BASIS_SET_FILE_NAME  ./BASIS_SET
    BASIS_SET_FILE_NAME  ./GTH_BASIS_SETS 
    POTENTIAL_FILE_NAME  ./GTH_POTENTIALS
    &MGRID
      CUTOFF  300
      REL_CUTOFF  50
    &END MGRID
    &POISSON
      PERIODIC XYZ
    &END POISSON
    &QS
      METHOD GPW
      EPS_DEFAULT 1.0E-12
      EPS_PGF_ORB 1.0E-20
    &END QS
    &SCF
      SCF_GUESS RESTART
      EPS_SCF 1.0E-7
      MAX_SCF 500
      &OT
        MINIMIZER DIIS
        PRECONDITIONER FULL_KINETIC
      &END
    &END SCF
    &XC
      &XC_FUNCTIONAL PBE
        &PBE
          PARAMETRIZATION PBESOL
        &END PBE
      &END XC_FUNCTIONAL
      &VDW_POTENTIAL
        DISPERSION_FUNCTIONAL PAIR_POTENTIAL
        &PAIR_POTENTIAL
          TYPE DFTD3
          PARAMETER_FILE_NAME ./dftd3.dat
          REFERENCE_FUNCTIONAL PBE
        &END PAIR_POTENTIAL
      &END
    &END XC
  &END DFT
&SUBSYS
    &CELL
      ABC  17.724 19.461  48.346
      ANGLES 90.0 90.0 90.0
    &END CELL
    &COORD
 Ti    -0.0094931975000000  6.5291298920000003 14.4964820645999986
 Ti    14.7516988614999995 19.5046548719000015 14.4995894269999983
 Ti    11.7878213147000004 19.5031834089999982 14.4998361942999985
 Ti     8.8421423670999992 19.5048305922000011 14.5011400310999985
 Ti     5.8769970848000002 19.5033468676000012 14.5015942004999978
 Ti     2.9371905455000000 19.5051435738000016 14.5021965801999979
 Ti    -0.0190815335000000 19.5043638844999982 14.4945598571999970
 Ti    14.7837229641000008 13.0162724601999997 14.5034395596999985
 Ti    11.8412340061000005 13.0176256541999997 14.4985637953999973
 Ti     8.8747366116999995 13.0155659214000003 14.5022112955999969
 Ti     5.9363938584999998 13.0133747045000003 14.5046342384999978
 Ti     2.9668709229000001 13.0139698849999998 14.5036008006999975
 Ti     0.0282708619000000 13.0149979428999991 14.5046014069999973
 Ti    14.7586153417000006  6.5298530741000000 14.4988245268999982
 Ti    11.7972192023000009  6.5291564426999997 14.4972375979999981
 Ti     8.8527198642999991  6.5290213854000001 14.5013296035999986
 Ti     5.8978450434000003  6.5298226772000003 14.4975853248999975
 Ti     2.9494768231999999  6.5287148741000003 14.5033512645999974
 Ti    13.2888942176999993 16.2595776978000011 14.1209368227999974
 Ti    10.3433496192999996 16.2554966301999997 14.1226000334999977
 Ti     7.3813682291999996 16.2577686602999982 14.1219528314999980
 Ti    10.3444347717999996  9.7729858405000005 14.1222014609999977
 Ti     4.4354066718000000  9.7720599754999995 14.1218718783999986
 Ti     1.4737384828000000  9.7703738326000007 14.1222423646999982
 Ti    10.3417652727000000  3.2842769556999998 14.1234053885999984
 Ti     4.4339471527000001  3.2864427438999999 14.1240884670999982
 Ti     1.4721877189999999  3.2833526451999999 14.1245212620999983
 Ti    16.2513258082000007 16.2565376539000006 14.1223350202999978
 Ti     4.4348003650000001 16.2546499211000004 14.1240336991999982
 Ti     1.4729556049000001 16.2586137055000002 14.1216919771999976
 Ti    16.2518749171000003  9.7720248938999994 14.1242910004999978
 Ti    13.2901523199000007  9.7712968729000007 14.1238829407999980
 Ti     7.3817194900000001  9.7691788693999992 14.1207182176999986
 Ti    16.2504555374000006  3.2826868268000000 14.1210109708999969
 Ti    13.2878704515999999  3.2844837443000001 14.1216815454999978
 Ti     7.3795862243999997  3.2855240601000002 14.1253465742999982
 Ti    -0.0029501552000000  3.1857048892000002 10.9469682539999980
 Ti    14.7665295882999992 16.1635035078000016 10.9668527990999980
 Ti    11.8113300032000001 16.1579947930000003 10.9461172843999979
 Ti     8.8589257190000001 16.1668441371000000 10.9668631383999973
 Ti     5.9018072525000003 16.2502093603000013 10.9452535688999983
 Ti     2.9495548166000001 16.1803471085000012 10.9667328631999972
 Ti    -0.0058451682000000 16.1575771350000004 10.9461205073999981
 Ti    14.7670451950999997  9.6770753223000003 10.9654086976999974
 Ti    11.8115340355999994  9.6747842940000002 10.9444625296999973
 Ti     8.8590950870000000  9.6769072181000002 10.9668780018999978
 Ti     5.9045814068000002  9.7486805456999992 10.9419867204999974
 Ti     2.9511707222000001  9.6991515852999992 10.9653716912999979
 Ti    -0.0056075043000000  9.6753618289999999 10.9449221523999967
 Ti    14.7680314611999997  3.1881745211000001 10.9627134585999979
 Ti    11.8116414586000005  3.1871210819000000 10.9466474812999977
 Ti     8.8600013314999995  3.1911803392999998 10.9644865733999985
 Ti     5.9050845314000000  3.2014405344000001 10.9481160872999972
 Ti     2.9523550989000000  3.2808627834999999 10.9621321990999974
 Ti     1.4669001382000000  6.4499994079000000 11.1589869802999981
 Ti    16.2455072588999982 19.4145473162999984 11.1515132182999981
 Ti    13.2829819358000005 19.4154964133000014 11.1581678838999974
 Ti    10.3363050170000008 19.4159405657000015 11.1533587566999977
 Ti     7.3706704804000003 19.4218329208999982 11.1605732355999976
 Ti     4.3743573732999996 19.5003337811000002 11.1542345018999978
 Ti     1.4639009593000001 19.4210938762000005 11.1579236281999972
 Ti    16.2496741448999984 12.9299760441000000 11.1626231963999984
 Ti    13.2871677486999999 12.9276427573999992 11.1528762669999981
 Ti    10.3365881724000008 12.9222378649999996 11.1587063899999972
 Ti     7.3769702597000002 12.9569629408000004 11.1519920986999974
 Ti     4.4395562955000001 13.0036380993999998 11.1626279491999973
 Ti     1.4789384193999999 12.9160928417999994 11.1521756721999985
 Ti    16.2474157497000000  6.4414719355000001 11.1519285059999973
 Ti    13.2857269208000002  6.4427809216999998 11.1566538524999981
 Ti    10.3359892806999998  6.4390921657000000 11.1526731949999984
 Ti     7.3722223171000003  6.4446074504000004 11.1561782956999984
 Ti     4.4530741936000000  6.5175740958999997 11.1542600988999983
 Ti     0.1444402789000000  6.5209596675999997  7.7952518603999978
 Ti    14.6151736085999993 19.4901675457999985  7.7933793143999974
 Ti    11.6725818207999996 19.4340254940000001  7.7940373595999981
 Ti     8.7061170316999998 19.4906905301000002  7.7940908106999975
 Ti     5.7647983706000003 19.4337030746000003  7.7954886012999980
 Ti     2.7986224814999998 19.4901441913000006  7.7934907253999981
 Ti    -0.1413898778000000 19.4334697060000003  7.7894193055999974
 Ti    14.6479919449999993 12.9823460899000001  7.7954032073999979
 Ti    11.6713811098000004 12.9658321532999992  7.7929848831999973
 Ti     8.7398583200999997 12.9871235814000006  7.7942600662999979
 Ti     5.7629535447000002 12.9796934846000003  7.7948375745999980
 Ti     2.8316625496999999 12.9613114061000001  7.7952280641999980
 Ti    -0.1451920136000000 12.9805287778000000  7.7945531644999981
 Ti    14.9118056493999998  6.4550768537999996  7.7934348563999976
 Ti    11.9603738078999999  6.5203719076000004  7.7931613389999974
 Ti     8.9949788265000006  6.4527189846999997  7.7960025114999976
 Ti     6.0469808606999997  6.5184165117999999  7.8002382729999979
 Ti     3.0874165812999999  6.4535907859000003  7.7929663905999975
 Ti     1.4622682854000000  3.3780039169000000  7.7941457045999973
 Ti    16.1796615183000014 16.2707199650999996  7.7949097439999981
 Ti    13.2420220842000003 16.1672877001000010  7.7964117905999979
 Ti    10.2724767059000008 16.2690612600999991  7.7950418490999978
 Ti     7.3345867630999999 16.1728824666999991  7.7954170530999978
 Ti     4.3606838114000004 16.2634540881999996  7.7930363751999980
 Ti     1.4310699397000000 16.1670303633000003  7.7939424216999980
 Ti    16.1984410312999998  9.6000212879000006  7.7946683094999978
 Ti    13.2649572398999993  9.8647666801000007  7.7962193597999976
 Ti    10.2874859452000003  9.5988131729999999  7.7959359702999977
 Ti     7.3559054749000001  9.8692156176000001  7.7948875593999976
 Ti     4.3844022463999996  9.5947885690000003  7.7933548990999979
 Ti     1.4445328675000000  9.8640948536999993  7.7948681401999975
 Ti    16.2587388327999989  3.1078434999000000  7.7947332039999981
 Ti    13.2785909393000008  3.3795624725000000  7.7967997477999980
 Ti    10.3497918825999999  3.1097005970999998  7.7947433650999978
 Ti     7.3695614794999997  3.3794959947000001  7.7962734297999976
 Ti     4.4418445875000003  3.1077508541999999  7.7929928394999974
 Ti     0.0025532412000000  3.3003647557000000  4.6439654971999982
 Ti    14.7676707780999994 16.2687260239999993  4.6233494653999969
 Ti    11.8155443658999992 16.1806001825000010  4.6427791918999972
 Ti     8.8596440730000001 16.1784086404000007  4.6241197869999979
 Ti     5.9048200071999997 16.2697675042999990  4.6419427472999981
 Ti     2.9517787093000001 16.2734208637999984  4.6223793294999975
 Ti    -0.0025435139000000 16.2762641694000010  4.6434709355999981
 Ti    14.7688613016999994  9.7825391890999995  4.6246429317999969
 Ti    11.8157891145999994  9.6922697604000003  4.6451440018999985
 Ti     8.8604354949000008  9.6926057235999998  4.6259666776999975
 Ti     5.9051630628999998  9.7822241972999997  4.6450078569999977
 Ti     2.9519852394999999  9.7856436714000008  4.6238202137999984
 Ti    -0.0012714884000000  9.7885536812999998  4.6447555777999980
 Ti    14.7712568057000002  3.2966839459999999  4.6254794086999969
 Ti    11.8209603829999992  3.2046327187000001  4.6430822098999975
 Ti     8.8627211155999994  3.2053046367000002  4.6272889667999983
 Ti     5.9096306420999998  3.2970495303999998  4.6428261810999985
 Ti     2.9551154135000002  3.2996430927999998  4.6250517931999973
 Ti     1.4713624732999999  6.5332995021000002  4.4302388487999984
 Ti    16.2350276991999998 19.5143228473000008  4.4351190888999970
 Ti    13.2812750349000002 19.4842526276999983  4.4281123837999985
 Ti    10.3299732232999997 19.3881195003999984  4.4348176541999980
 Ti     7.3779891431999998 19.4889907437999987  4.4281071355999977
 Ti     4.4299215798000002 19.5118318694000017  4.4340973905999981
 Ti     1.4656499623999999 19.5075184135000015  4.4281639838999975
 Ti    16.2406899994000007 13.0262694184000001  4.4280383184999970
 Ti    13.2845123758000003 12.9986315799999996  4.4372489967999975
 Ti    10.3349482823999992 12.9012175580000008  4.4283332958999981
 Ti     7.3810002897000002 13.0011187993000004  4.4369982886999981
 Ti     4.4323467673000003 13.0235004125000007  4.4299117035999984
 Ti     1.4686428112000001 13.0211558167000003  4.4378567902999979
 Ti    16.2448446132999997  6.5391119037000003  4.4346821866999981
 Ti    13.2867617211999995  6.5128856702000002  4.4281537291999982
 Ti    10.3375205365999996  6.4120531944000003  4.4366391092999979
 Ti     7.3840557259999997  6.5133082246000003  4.4274892751999975
 Ti     4.4350195460000004  6.5373230839999996  4.4358286611999969
 Ti     1.4708135854000000  3.2041617843000001  1.4679232493999983
 Ti    -0.0309519496000000  6.4446700292000001  1.0845158065999971
 Ti    16.2467304020999990 16.1869376942999992  1.4658171535999980
 Ti    14.7527453492999996 19.4898495913000005  1.0849779154999979
 Ti    13.2870846370999995 16.2778102669000013  1.4662064791999985
 Ti    11.7842878940000002 19.4885018808000012  1.0850111413999972
 Ti    10.3391045836999993 16.1822688150999987  1.4637500482999979
 Ti     8.8451468896000005 19.4199967871999988  1.0857067811999972
 Ti     7.3795225377999998 16.1786827636000012  1.4635047326999970
 Ti     5.8777940074000004 19.4227742278999997  1.0846972821999969
 Ti     4.4350639651000003 16.1775274979000017  1.4662444575999984
 Ti     2.9371707443999999 19.4202362388000012  1.0860750119999985
 Ti     1.4740551291999999 16.1819305608999997  1.4669337911999971
 Ti    -0.0316753266000000 19.4206874971000012  1.0848141682999977
 Ti    16.2494039655000009  9.6983257915000003  1.4649814123999985
 Ti    14.7836179574000006 13.0022166580000000  1.0849434364999979
 Ti    13.2904279304999999  9.7855505036999997  1.4650962780999972
 Ti    11.8425744367999997 12.9968480238000001  1.0853419587999973
 Ti    10.3408492249999995  9.6950860455000001  1.4681375434999975
 Ti     8.8745047832000008 12.9297806972000000  1.0873168599999978
 Ti     7.3798021351000003  9.6898241553000002  1.4686784372999977
 Ti     5.9265865331000001 12.9307153716999998  1.0913235528999969
 Ti     4.4334906611999996  9.6943465246000002  1.4671090850999970
 Ti     2.9652464346000000 12.9317743772000000  1.0869841991999980
 Ti     1.4728427857999999  9.6891428760000000  1.4679798445999985
 Ti     0.0262056380000000 12.9345343326000002  1.0875602030999971
 Ti    16.2450870147000010  3.2145115041999999  1.4671415962999976
 Ti    14.7534078299000004  6.5135838310000000  1.0849354086999980
 Ti    13.2861076962000002  3.3000704168000001  1.4666593962999972
 Ti    11.7857743760999991  6.5100669621999998  1.0852106093999971
 Ti    10.3368401201999998  3.2119741541000000  1.4669444797999969
 Ti     8.8461237196999996  6.4454490885000002  1.0854112710999981
 Ti     7.3775116731999999  3.2057707819000001  1.4668211120999981
 Ti     5.8761494566000003  6.4470564011000002  1.0846878739999983
 Ti     4.4315851642000004  3.2063933333999999  1.4681480433999976
 Ti     2.9364823553999999  6.4448652082000004  1.0869615221999975
  O     1.4668076044000000  6.5291937676999998 15.5679415449999983
  O    16.2459439611999983 19.4913853408999991 15.5669088914999971
  O    13.2838403301000003 19.4995172514000004 15.5662748902999972
  O    10.3305379983000005 19.4737758171000017 15.5775158067999975
  O     7.3751049338000003 19.5214510427000008 15.5671824442999984
  O     4.4215758332000004 19.4702827483000007 15.5837364362999971
  O     1.4685142530999999 19.5220706909000015 15.5683642955999986
  O    16.2631738912000010 13.0353058582999992 15.5673099052999984
  O    13.3010221919999996 13.0431206291000006 15.5781242968999969
  O    10.3540120741999999 13.0096775625000003 15.5645792842999970
  O     7.4010761372999996 12.9828220503999994 15.5875897619999968
  O     4.4481353729000004 13.0112663766000001 15.5665280830999979
  O     1.4900204150000000 12.9829119267999999 15.5878804219999978
  O    16.2471127467000009  6.5045323348000004 15.5658548112999977
  O    13.2867001339000002  6.5081543177999999 15.5655568332999970
  O    10.3415584372999998  6.5505333119999998 15.5739594225999980
  O     7.3747144313000002  6.5297184823999999 15.5694362014999967
  O     4.4337426826000002  6.5505248334999999 15.5729808919999968
  O    14.7718236781000005 15.0423522090000006 14.4384038223999980
  O    11.8177945128000008 15.0267890222999991 14.4560320504999975
  O     8.8607836628999994 15.0366109767000005 14.4509171008999981
  O     5.9102909752999997 15.0205868692000006 14.4581795448999983
  O     2.9545408068999999 15.0365079224000002 14.4520633974999981
  O     0.0035586970000000 15.0233262723000003 14.4569508526999986
  O    14.7708423870000001  8.5479190921000008 14.4430515580999970
  O    11.8187936899999997  8.5382139541999997 14.4560872172999986
  O     8.8633972536000005  8.5527601770999997 14.4412156635999978
  O     5.9086701101000001  8.5384789057999999 14.4545880749999984
  O     2.9525124608000000  8.5516577299000005 14.4392011311999973
  O    -0.0006945967000000  8.5379742219000008 14.4578244235999982
  O    11.8144284120999998  2.0502858905000001 14.4590349037999975
  O     2.9566776155999999  2.0629020045000002 14.4399243118999969
  O     0.0009767994000000  2.0515272281999999 14.4574834779999986
  O    14.7672252787999998  2.0645107530000000 14.4465733660999973
  O     8.8614355797000002  2.0632823739999999 14.4376447765999973
  O     5.9069272075999999  2.0524608860000000 14.4591612135999981
  O    -0.0022058397000000  4.4830023169000004 14.4624909436999971
  O    14.7729499487999991 17.4703084725999993 14.4400360315999983
  O    11.8125919740000001 17.4589160587000016 14.4640907150999976
  O     8.8618374327999998 17.4685104598999992 14.4395681783999983
  O     5.9077037462000002 17.4561001582999999 14.4667512466999977
  O     2.9554359189000001 17.4683852870999985 14.4393561397999974
  O     0.0024615558000000 17.4594572544999984 14.4671917536999981
  O    11.8226380232999997 10.9751762134999993 14.4691623016999973
  O     2.9561244101000002 10.9786883048000004 14.4499379833999981
  O    -0.0016322893000000 10.9721652658999993 14.4673989083999981
  O    14.7712805574000008  4.4939400300000001 14.4360790107999986
  O    11.8125268761999997  4.4853882867000001 14.4671170698999969
  O     8.8621926832000000  4.4909132859999996 14.4805107834999980
  O     5.9054020216999996  4.4886144520000002 14.4698225863999976
  O     2.9536731903000000  4.4907902520000000 14.4795943857999969
  O    14.7718591385000000 10.9783833015999992 14.4802405846999971
  O     8.8673448958000005 10.9809905617000005 14.4399276039999975
  O     5.9109081940000001 10.9706031624999998 14.4655445036999986
  O     1.4921459773000001  6.4895624294000003 13.0156770759999976
  O    16.2680850238000012 19.5019748731000000 13.0033774085999987
  O    13.3105416378000001 19.4648708508999988 13.0169007715999978
  O    10.3610634090999998 19.5012007698999987 13.0114861152999985
  O     7.4010322975999996 19.4636566629999983 13.0169438431999982
  O     4.4565796449999997 19.5075678888000006 13.0191919601999970
  O     1.4933554546000001 19.4640123180000018 13.0193166881999982
  O    16.2363794241000008 12.9768746601000000 13.0174582876999985
  O    13.3076856874999994 12.9767145626999998 13.0206841351999980
  O    10.3529505265000008 13.0026135253999993 13.0065487759999971
  O     7.3984465206000003 12.9794109473999999 13.0222769209999978
  O     4.4219614310999997 12.9792179911000005 13.0166643571999980
  O     1.4880773091999999 12.9804216081000003 13.0226452224999978
  O    16.2649154013000015  6.5244938147999996 12.9995654943999970
  O    13.3077263905999992  6.4923790678000000 13.0145534372999983
  O    10.3283463025000000  6.4898696567999998 13.0207272871999979
  O     7.3998728340000000  6.4909837800999997 13.0202237878999973
  O     4.4161759795000002  6.4905833221000000 13.0190934589999969
  O     1.4619121154000001  3.2837454278000000 12.3157193129999971
  O    16.2650204478000013 16.2571438448999999 12.3138890026999981
  O    13.2763731689999993 16.2583645037999993 12.3133767351999985
  O    10.3556069203999996 16.2528633097000004 12.3139481166999971
  O     7.3695742126999999 16.2520347755000003 12.3147368510999975
  O     4.4469065829999996 16.2490927877999987 12.3157356058999969
  O     1.4609116461000000 16.2534476167000008 12.3139628055999975
  O    16.2615578911999989  9.7707198507000008 12.3144759411999978
  O    13.2782958103999995  9.7690508637000004 12.3152315361999971
  O    10.3565225870000006  9.7704982377000000 12.3139772122999975
  O     7.3676688455999999  9.7681664517000009 12.3133242083999974
  O     4.4471369513000001  9.7694506028999992 12.3135948449999972
  O     1.4593678101000001  9.7693484785999996 12.3144286991999969
  O    16.2630582974999989  3.2814727123999998 12.3125892158999974
  O    13.2770440051000005  3.2804889934000001 12.3141013238999975
  O    10.3540881317999993  3.2860228909000000 12.3144711916999974
  O     7.3693479009000002  3.2854678995000000 12.3167599443999976
  O     4.4458522418999999  3.2863064860000000 12.3151898946999978
  O     0.0006811123000000  5.2006994181000001 11.0164301758999983
  O     0.0038348817000000  1.3078887967999999 11.0173365528999980
  O    14.7738793461999993 18.1925712150999992 11.0441031408999972
  O    14.7717699790000001 14.3006320634000001 11.0690979850999973
  O    11.8161405572000007 18.1742088218999989 11.0182355429999976
  O    11.8190509778999999 14.2811183998000004 11.0166919729999968
  O     8.8638040251000003 18.1921524203000011 11.0536564424999977
  O     8.8628471081000004 14.3002714313000006 11.0612250714999973
  O     5.9057918877000004 18.1707162697000015 11.0169286935999970
  O     5.9101398423999996 14.2806772991000006 11.0198039292999983
  O     2.9601615913999999 18.1946297458000004 11.0640896479999977
  O     2.9530475578000002 14.3019259045999991 11.0647648026999974
  O     0.0003666204000000 18.1730821973999994 11.0171631414999975
  O     0.0007624195000000 14.2798253998000000 11.0183374324999974
  O    14.7712961766999999 11.7054279426000001 11.0439558312999981
  O    14.7688718874999996  7.8124173375000003 11.0456442793999976
  O    11.8172470190999999 11.6863207720000002 11.0174232678999982
  O    11.8163179140000008  7.7927227361000000 11.0187140396999972
  O     8.8620059541000007 11.7067767098999997 11.0467409052999983
  O     8.8629829358999999  7.8136717015999997 11.0638098600999975
  O     5.9069846757000004 11.6876354435999996 11.0176046890999970
  O     5.9086596526999999  7.7963476153000002 11.0219351837999984
  O     2.9585595516000001 11.7063697391999995 11.0425957893999982
  O     2.9505155411000001  7.8151626485000003 11.0639272727999973
  O     0.0007644061000000 11.6867145473999994 11.0182572779999983
  O     0.0043761159000000  7.7941194103999996 11.0171020218999978
  O    14.7729566239000007  5.2194743275000004 11.0378382893999980
  O    14.7703203365999993  1.3255814951000000 11.0491219509999983
  O    11.8153631104999999  5.2010084533000001 11.0185428827999985
  O    11.8193114442000002  1.3075543972000001 11.0172646243999974
  O     8.8616765713000003  5.2173984958000004 11.0430128219999979
  O     8.8612597177999994  1.3251300156000001 11.0607843788999975
  O     5.9035536517000002  5.2059203564000001 11.0214874634999980
  O     5.9123560803000004  1.3112676970999999 11.0190695763999980
  O     2.9558039793000002  5.2151170432000002 11.0377191358999980
  O     2.9511013630999998  1.3278883621999999 11.0656728985999973
  O     1.4908819271000000  3.2498138532000000  9.7716918886999977
  O    16.2336865898999996 16.2219839917000002  9.7706304815999978
  O    13.3078778310000008 16.2220176360000004  9.7712471427999965
  O    10.3252245284999997 16.2224612880000016  9.7708696202999974
  O     7.3997895480000002 16.2215413457999986  9.7714381654999976
  O     4.4161570815999998 16.2222373431000015  9.7713497515999990
  O     1.4929320377999999 16.2223571811999996  9.7721634744999974
  O    16.2331790998999992  9.7333445030999997  9.7700722692999982
  O    13.3035507194000004  9.7390245728000000  9.7715154826999981
  O    10.3246123792999995  9.7328829035000002  9.7702664825999967
  O     7.3965362035000002  9.7375241899000002  9.7715160740999973
  O     4.4163521324000001  9.7327173537000000  9.7702084640999978
  O     1.4884780768000001  9.7379930600000009  9.7717108107999984
  O    16.2343580540999994  3.2462621768000002  9.7705051830999974
  O    13.3041989830999992  3.2524324848999999  9.7717616273999965
  O    10.3246181312999994  3.2456824075999999  9.7704013443999980
  O     7.3964619933000000  3.2519568398000001  9.7725783735999983
  O     4.4163273637999998  3.2452048892000001  9.7713306992999982
  O     1.4861794660000001  6.4868724911999998  9.0800454210999977
  O    16.2567114432999986 19.4786333634999984  9.0731477182999978
  O    13.3054727243999995 19.4623200216999983  9.0855564658999981
  O    10.3372605553000003 19.4677648555000005  9.0809173300999966
  O     7.3974889232000001 19.4620788380000000  9.0877083988999985
  O     4.4306241613999999 19.4670905368999989  9.0846560366999967
  O     1.4904056114999999 19.4616919913000004  9.0863216264999984
  O    16.2389430558000001 12.9793519386000007  9.0791711240999966
  O    13.3106928993999993 12.9751012446999994  9.0855218150999981
  O    10.3340770588000002 12.9811329580999999  9.0764643197999977
  O     7.4026812439000000 12.9747987632000008  9.0857549980999970
  O     4.4231587291999999 12.9790035542000002  9.0784159577999972
  O     1.4941834653999999 12.9751545894000007  9.0860423480999977
  O    16.2614462019000001  6.5213312725000003  9.0639277860999989
  O    13.3011028548999999  6.4866624353000004  9.0783463820999977
  O    10.3253278156999997  6.4916964451999997  9.0850749227999970
  O     7.3947324665999998  6.4875912181000004  9.0838860414999978
  O     4.4141465654000003  6.4910616457000003  9.0873191475999988
  O     0.0317601142000000  1.9920716485000001  7.7930344919999976
  O    -0.0282750930000000  4.4973997419999998  7.7948295087999977
  O    14.7760013807000004 14.9714175876999995  7.7937938729999976
  O    14.7702707956000001 17.4741798463000002  7.7955967219999973
  O    11.8197699173000004 14.9629722288000000  7.7938879298999977
  O    11.8274650155999996 17.4665510680999994  7.7944517681999974
  O     8.8678272150000002 14.9711660617000000  7.7944619002999973
  O     8.8616330640999994 17.4729067479000015  7.7944752069999979
  O     5.9111098306000001 14.9634209512999998  7.7946999579999980
  O     5.9217353386999996 17.4661688955000010  7.7953682467999981
  O     2.9603767612000000 14.9689555623999997  7.7946020304999974
  O     2.9541942390000000 17.4725919119999986  7.7949326784999977
  O     0.0034741079000000 14.9635074001999993  7.7954051314999981
  O     0.0134374968000000 17.4659258056999995  7.7942162390999981
  O    14.7503032048999998  8.4760463790999996  7.7932688204999980
  O    14.7822281192999991 10.9774149030999997  7.7943602384999977
  O    11.8357256397999997  8.4854193703000007  7.7944667150999978
  O    11.7895827446000006 10.9854837046000000  7.7937892371999977
  O     8.8414221209000008  8.4740155965999993  7.7919698434999978
  O     8.8746199198000006 10.9775990669999999  7.7955427707999974
  O     5.9292460711999997  8.4852847404999991  7.7952936814999978
  O     5.8820053931000000 10.9867757497999996  7.7952214023999975
  O     2.9357040965999999  8.4749923613000000  7.7944317889999981
  O     2.9670311592999998 10.9758701759000008  7.7950065566999980
  O     0.0248137744000000  8.4878491167999996  7.7905480201999975
  O    -0.0262796910000000 10.9872506395999991  7.7949722501999981
  O    14.7594087820999995  1.9975155142000001  7.7945237266999978
  O    14.7836000896000002  4.4923379872000000  7.7986250376999973
  O    11.8468582181999995  1.9917770753999999  7.7947036408999981
  O    11.7869875021000006  4.4973285884000003  7.7942163050999973
  O     8.8516151054000005  1.9963116694000000  7.7945577977999978
  O     8.8746407709999993  4.4891549906000003  7.7954710098999973
  O     5.9385923730999997  1.9904486628000000  7.7949044488999979
  O     5.8767253295000002  4.4947920130999997  7.7980751741999974
  O     2.9439231146000000  1.9954073047000001  7.7948679453999974
  O     2.9658745914000000  4.4892504115999996  7.7953033697999974
  O     1.4877427501000000  6.4819110890999996  6.5064524851999979
  O    16.2405119288000002 19.4614199853000009  6.5043104538999978
  O    13.3049426285999992 19.4612552825000016  6.5042748986999976
  O    10.3342867889000001 19.4604895712000001  6.5077426753999976
  O     7.3962240288999999 19.4585683582000009  6.5045399827999981
  O     4.4282155565999997 19.4572788635999991  6.5093803637999974
  O     1.4903519598999999 19.4584437259999987  6.5029795537999977
  O    16.2387498703999995 12.9766964212999998  6.5100901475999979
  O    13.3110357776000008 12.9737177745000007  6.5030869952999977
  O    10.3302775055999998 12.9742537200000001  6.5093858635999977
  O     7.4022955443000003 12.9717249953000007  6.5043396787999974
  O     4.4225714612000004 12.9725232418999994  6.5101550614999981
  O     1.4941092974000001 12.9705126619000009  6.5040506761999977
  O    16.2327926407999996  6.4880914563000003  6.4992883391999978
  O    13.3021344732000006  6.4847530922000001  6.5091991408999981
  O    10.3243577402000000  6.4883530347000002  6.5042835881999981
  O     7.3747157422000003  6.4593721394000001  6.5214879152999981
  O     4.4173192447999998  6.4868450762999998  6.5044395963999975
  O     1.4909734182000001  3.2417769794000000  5.8192852920999982
  O    16.2341985615999995 16.2151391161999996  5.8179858966999980
  O    13.3077268574000005 16.2147653343000009  5.8179701113999975
  O    10.3265365072000002 16.2158421319000006  5.8174110552999974
  O     7.3996022939000001 16.2141319418000016  5.8174311586999981
  O     4.4199931517000000 16.2136300121999994  5.8177170860999983
  O     1.4911798535000000 16.2135709990000016  5.8178438483999972
  O    16.2326783387000013  9.7263454474000000  5.8183793926999972
  O    13.3066349434000006  9.7299325075999992  5.8189131600999975
  O    10.3252466154999993  9.7269875371999994  5.8183664018999970
  O     7.3981493807999996  9.7295448282999999  5.8189346387999983
  O     4.4173667859999997  9.7248406647000003  5.8187166023999985
  O     1.4895675423000001  9.7293251356999999  5.8187856654999983
  O    16.2329430507000012  3.2394168899000002  5.8187116057999972
  O    13.3084029791000003  3.2430508745000002  5.8199210506999979
  O    10.3262207349999997  3.2393257437999998  5.8178350750999979
  O     7.3997258977999998  3.2424918082000000  5.8197272913999978
  O     4.4186394637999999  3.2370568812000000  5.8184999310999981
  O    -0.0018864227000000  5.1837347856999996  4.5706601822999975
  O    -0.0000874986000000  1.2901207943999999  4.5722171526999968
  O    14.7746099299000004 18.1575205884999988  4.5444141418999973
  O    14.7659339605000000 14.2712719835000001  4.5193611205999975
  O    11.8164147238999995 18.1604325121000016  4.5720854218999971
  O    11.8160730917999999 14.2687316107999997  4.5725033197999974
  O     8.8612849104000002 18.1360118833999984  4.5210968238999971
  O     8.8668341959999992 14.2490139504000002  4.5525908256999976
  O     5.9087137593000003 18.1555123925000004  4.5703808833999968
  O     5.9097261332000004 14.2618310766000000  4.5719796751999979
  O     2.9564936597000000 18.1360005215000015  4.5231755292999978
  O     2.9542602138000000 14.2448099774999992  4.5471957085999986
  O    -0.0004305738000000 18.1571683483999990  4.5706612070999970
  O     0.0010714558000000 14.2645319664999999  4.5722558649999971